{"metadata":{"kernelspec":{"display_name":"Python 3","language":"python","name":"python3"},"language_info":{"name":"python","version":"3.8.8","mimetype":"text/x-python","codemirror_mode":{"name":"ipython","version":3},"pygments_lexer":"ipython3","nbconvert_exporter":"python","file_extension":".py"}},"nbformat_minor":5,"nbformat":4,"cells":[{"cell_type":"code","source":"\"\"\"CPP analysis\"\"\"\n\n__author__    = \"Thomas Fransson\"\n__credit__    = [\"Thomas Fransson\"]\n\n__copyright__ = \"(c) 2021, ENCSS and PDC\"\n__license__   = \"MIT\"\n__date__      = \"2021-05-06\"","metadata":{"tags":["remove_cell"],"trusted":true},"execution_count":11,"outputs":[]},{"cell_type":"markdown","source":"<figure>\n  <IMG SRC=\"../../img/ENCCS-PDC-logos.jpg\" WIDTH=150 ALIGN=\"right\">\n</figure>","metadata":{"tags":["remove_cell"]}},{"cell_type":"markdown","source":"# Analysis of CPP results","metadata":{"tags":[]}},{"cell_type":"markdown","source":"<div style=\"background: #efffed;\n            border: 1px solid grey;\n            margin: 8px 0 8px 0;\n            text-align: center;\n            padding: 8px; \">\n    <i class=\"fa-play fa\" \n       style=\"font-size: 40px;\n              line-height: 40px;\n              margin: 8px;\n              color: #444;\">\n    </i>\n    <div>\n    To run the selected code cell, hit <pre style=\"background: #efffed\">Shift + Enter</pre>\n    </div>\n</div>","metadata":{"tags":["remove_cell"]}},{"cell_type":"code","source":"%matplotlib inline\nimport matplotlib.pyplot as plt     \nimport numpy as np \nfrom scipy.interpolate import interp1d\neV = 27.2114","metadata":{"trusted":true},"execution_count":1,"outputs":[]},{"cell_type":"markdown","source":"# Example 1: vinylfluoride\n\n### Input file\n\n```\n@jobs\ntask: response\n@end\n\n@method settings\nxcfun: b3lyp\nbasis: def2-svp\n@end\n\n@response\nproperty: absorption (cpp)\nfrequencies: 10.05 - 10.37 (0.0025)\ndamping: 0.01\n@end\n\n@molecule\ncharge: 0\nmultiplicity: 1\nxyz:\n C     0.000000    -0.246412    -1.271068\n C     0.000000     0.457081    -0.154735\n F     0.000000    -0.119195     1.052878\n H     0.000000     0.272328    -2.210194\n H     0.000000    -1.319906    -1.249847\n H     0.000000     1.530323    -0.095954\n@end\n```","metadata":{}},{"cell_type":"markdown","source":"## Load data for analysis\nHere saved in .npy-object - can alternatively use hdf5-format","metadata":{}},{"cell_type":"code","source":"data = np.load('vinylfluoride.npy', allow_pickle=True)\nscf_E = data[0][1]; mo_E  = data[1][1]; nocc  = data[2][1]; nvirt = data[3][1]; freqs = data[4][1]\naxx   = data[5][1]; ayy   = data[6][1]; azz   = data[7][1]\nx_solution = data[8][1]; y_solution = data[9][1]; z_solution = data[10][1]\nprint('SCF energy:',scf_E)\nprint('Occupied MO energies:',mo_E[:nocc])","metadata":{"trusted":true},"execution_count":2,"outputs":[{"name":"stdout","text":"SCF energy: -177.68966209046528\nOccupied MO energies: [-24.69342438 -10.27018896 -10.18747364  -1.20405927  -0.76597437\n  -0.60515048  -0.53206822  -0.48506863  -0.46039734  -0.41430941\n  -0.37450458  -0.26981574]\n","output_type":"stream"}]},{"cell_type":"markdown","source":"## Extract spectra (isotropic and for each Cartesian component)\nPrinting isotropic results - compare to output-file from your calculation","metadata":{}},{"cell_type":"code","source":"n_freq = len(freqs)\nsigma,sxx,syy,szz = np.zeros(n_freq),np.zeros(n_freq),np.zeros(n_freq),np.zeros(n_freq)\nprint('Freq. [au]  Freq [eV]  Sigma(w) [au]')\nindx = 0\nfor w in freqs:\n    axx_tmp = axx[indx]; ayy_tmp = ayy[indx]; azz_tmp = azz[indx]\n    a_bar = (axx_tmp + ayy_tmp + azz_tmp) / 3.0\n    sigma[indx] = (4.0 * np.pi * w * a_bar   / 137.035999)\n    sxx[indx]   = (4.0 * np.pi * w * axx_tmp / 137.035999)\n    syy[indx]   = (4.0 * np.pi * w * ayy_tmp / 137.035999)\n    szz[indx]   = (4.0 * np.pi * w * azz_tmp / 137.035999)\n    print(' {0:.4f}    {1:.4f}    {2:.8f}'.format(w,w*eV, sigma[indx]))\n    indx += 1","metadata":{"scrolled":true,"trusted":true},"execution_count":3,"outputs":[{"name":"stdout","text":"Freq. [au]  Freq [eV]  Sigma(w) [au]\n 10.0500    273.4746    0.00845762\n 10.0525    273.5426    0.00899523\n 10.0550    273.6106    0.00960043\n 10.0575    273.6787    0.01028567\n 10.0600    273.7467    0.01106644\n 10.0625    273.8147    0.01196217\n 10.0650    273.8827    0.01299751\n 10.0675    273.9508    0.01420404\n 10.0700    274.0188    0.01562271\n 10.0725    274.0868    0.01730729\n 10.0750    274.1549    0.01932928\n 10.0775    274.2229    0.02178513\n 10.0800    274.2909    0.02480674\n 10.0825    274.3589    0.02857705\n 10.0850    274.4270    0.03335308\n 10.0875    274.4950    0.03949933\n 10.0900    274.5630    0.04753392\n 10.0925    274.6311    0.05818320\n 10.0950    274.6991    0.07241525\n 10.0975    274.7671    0.09134172\n 10.1000    274.8351    0.11567469\n 10.1025    274.9032    0.14413677\n 10.1050    274.9712    0.17074302\n 10.1075    275.0392    0.18447787\n 10.1100    275.1073    0.17750124\n 10.1125    275.1753    0.15429935\n 10.1150    275.2433    0.12619319\n 10.1175    275.3113    0.10100083\n 10.1200    275.3794    0.08116233\n 10.1225    275.4474    0.06635681\n 10.1250    275.5154    0.05551633\n 10.1275    275.5835    0.04761953\n 10.1300    275.6515    0.04188061\n 10.1325    275.7195    0.03773928\n 10.1350    275.7875    0.03480829\n 10.1375    275.8556    0.03282484\n 10.1400    275.9236    0.03161470\n 10.1425    275.9916    0.03106815\n 10.1450    276.0597    0.03112491\n 10.1475    276.1277    0.03176570\n 10.1500    276.1957    0.03300904\n 10.1525    276.2637    0.03491272\n 10.1550    276.3318    0.03758010\n 10.1575    276.3998    0.04117226\n 10.1600    276.4678    0.04592806\n 10.1625    276.5359    0.05219516\n 10.1650    276.6039    0.06047598\n 10.1675    276.6719    0.07149154\n 10.1700    276.7399    0.08625648\n 10.1725    276.8080    0.10612210\n 10.1750    276.8760    0.13262754\n 10.1775    276.9440    0.16671171\n 10.1800    277.0121    0.20645080\n 10.1825    277.0801    0.24331774\n 10.1850    277.1481    0.26211839\n 10.1875    277.2161    0.25277187\n 10.1900    277.2842    0.22230633\n 10.1925    277.3522    0.18648259\n 10.1950    277.4202    0.15594768\n 10.1975    277.4883    0.13416789\n 10.2000    277.5563    0.12104618\n 10.2025    277.6243    0.11541566\n 10.2050    277.6923    0.11551552\n 10.2075    277.7604    0.11825522\n 10.2100    277.8284    0.11903591\n 10.2125    277.8964    0.11459336\n 10.2150    277.9645    0.10634943\n 10.2175    278.0325    0.09848631\n 10.2200    278.1005    0.09398062\n 10.2225    278.1685    0.09339716\n 10.2250    278.2366    0.09498645\n 10.2275    278.3046    0.09499545\n 10.2300    278.3726    0.09000017\n 10.2325    278.4407    0.08030828\n 10.2350    278.5087    0.06916492\n 10.2375    278.5767    0.05924628\n 10.2400    278.6447    0.05150332\n 10.2425    278.7128    0.04588125\n 10.2450    278.7808    0.04203435\n 10.2475    278.8488    0.03963618\n 10.2500    278.9168    0.03846362\n 10.2525    278.9849    0.03839963\n 10.2550    279.0529    0.03940598\n 10.2575    279.1209    0.04146081\n 10.2600    279.1890    0.04443630\n 10.2625    279.2570    0.04798245\n 10.2650    279.3250    0.05172737\n 10.2675    279.3930    0.05587869\n 10.2700    279.4611    0.06139598\n 10.2725    279.5291    0.06947871\n 10.2750    279.5971    0.08121230\n 10.2775    279.6652    0.09741469\n 10.2800    279.7332    0.11797522\n 10.2825    279.8012    0.14015352\n 10.2850    279.8692    0.15702173\n 10.2875    279.9373    0.16070658\n 10.2900    280.0053    0.15068251\n 10.2925    280.0733    0.13470662\n 10.2950    280.1414    0.12072627\n 10.2975    280.2094    0.11254844\n 10.3000    280.2774    0.11080460\n 10.3025    280.3454    0.11416831\n 10.3050    280.4135    0.11943679\n 10.3075    280.4815    0.12254717\n 10.3100    280.5495    0.12199728\n 10.3125    280.6176    0.11994894\n 10.3150    280.6856    0.11807650\n 10.3175    280.7536    0.11453124\n 10.3200    280.8216    0.10649720\n 10.3225    280.8897    0.09464686\n 10.3250    280.9577    0.08253174\n 10.3275    281.0257    0.07292746\n 10.3300    281.0938    0.06660224\n 10.3325    281.1618    0.06279624\n 10.3350    281.2298    0.05968531\n 10.3375    281.2978    0.05533011\n 10.3400    281.3659    0.04928880\n 10.3425    281.4339    0.04271097\n 10.3450    281.5019    0.03679418\n 10.3475    281.5700    0.03200739\n 10.3500    281.6380    0.02831983\n 10.3525    281.7060    0.02553900\n 10.3550    281.7740    0.02347156\n 10.3575    281.8421    0.02196896\n 10.3600    281.9101    0.02093072\n 10.3625    281.9781    0.02029790\n 10.3650    282.0462    0.02004738\n 10.3675    282.1142    0.02018996\n","output_type":"stream"}]},{"cell_type":"markdown","source":"## Compare to experiment\nPlotting above results as well as line spectrum constructed with a cubic spline.\\\nResults shifted to align with first experimental feature.","metadata":{}},{"cell_type":"code","source":"data = np.loadtxt('expt_vin'); E,I = [],[]\nfor i in np.arange(len(data)): E.append(data[i][0]); I.append(data[i][1])\nx = np.arange(min(freqs*eV),max(freqs*eV),0.01)\ny = interp1d(freqs*eV, sigma, kind='cubic')\nxmin,xmax = 283.5,292\nplt.figure(figsize=(8,5))\nplt.subplot(211); plt.title('B3LYP/def2-SVP')\nshft = 275.05-284.95\nplt.plot(x-shft,y(x))\nplt.plot(freqs*eV-shft,sigma,'x')\nplt.xlim((xmin,xmax))\nplt.subplot(212); plt.title('Experiment')\nplt.plot(E,I); plt.xlim((xmin,xmax))\nplt.tight_layout(); plt.show()","metadata":{"trusted":true},"execution_count":4,"outputs":[{"output_type":"display_data","data":{"text/plain":"<Figure size 576x360 with 2 Axes>","image/png":"iVBORw0KGgoAAAANSUhEUgAAAjgAAAFgCAYAAAC2QAPxAAAAOXRFWHRTb2Z0d2FyZQBNYXRwbG90bGliIHZlcnNpb24zLjQuMSwgaHR0cHM6Ly9tYXRwbG90bGliLm9yZy/Z1A+gAAAACXBIWXMAAAsTAAALEwEAmpwYAAB7tUlEQVR4nO3dd3hU1dbA4d9Kh9BJ6C30XiOdgIigoCIivQioiIpi5dOr3uu9lmu7ClZAQaRLVRAQAYHQIaH3FkqooaVA+uzvj5nIEAPpmcxkvc+TJzOnzFk7czKzzt777C3GGJRSSimlXImbowNQSimllMppmuAopZRSyuVogqOUUkopl6MJjlJKKaVcjiY4SimllHI5muAopZRSyuVogqOUUkopl6MJjlIqXxCRTiISnsFtRUR+FJFrIrItt2NTSjkfTXCUcnEiclJEYkUkxpYQLBWRyrZ1L4nICRGJEpFzIvKFiHjY7WtEpKbtsYhIsIj8M9XrPyEix0WksIhMFZEE27GuishKEambavs/RKRrNovVHrgfqGSMaSkirW3HuioiESIyT0TKp/N3+YeIhNliDReRn23LJ4rItDS2bywi8SJSSkTeFZFE277XRWSTiLTJZpmUUjlIExylCoaHjTFFgPLAReAr2/IlQHNjTDGgIdAEeDGtFzDWYc+fBF4RkQYAIuIPfAY8ZYy5adv0E9uxKgGXgKkpryEivkALYF02y1MVOGmMuWF7XhKYBFSzrYsGfrzTziLyBDAE6GKLNRBYbVs9FXjMFqu9ocBvxpirtuc/2/b1BzYAC0VEslkupVQO0QRHqQLEGBMHzAfq254fN8Zct60WwALUvMv+R4EPgMki4gZ8CSwwxqxJY9ubwCysiVOK+4CNxph4ESlkq/G5JiIHgHvs9xeRCiKywFYjEyYiL9qWPwn8ALSx1aD82xiz3BgzzxgTZTvu10C7u/wp7gFWGGOO22K9YIyZZHu8GTgL9LaLxR0YCPyURjkTbcvLAaXvckylVB7ySH8TpZSrEJHCQD9gi92ygcAEoChwGXg1nZf5HHgca6IUCDS4w7GKAIOAnXaLuwNLbY//BdSw/fgCy+32dcNau/QrMABrbdAqETlsjJksIslYa43a3yHGIGD/XcqwBfhSRM4Ca4Cdxphku/XTsNbYpDRVdQE87WO0i9UbGAaEG2Mu3+WYSqk8pDU4ShUMv4jIdSAKa9+VT1NWGGNm2ZqoamNNdC7e7YVsicAIoBfwgjEmOtUmr9mOdQwogvXLP8WDwDLb477AB8aYq8aYM1hrg1LcA/gbY/5jjEkwxpwAvgf6p1dQEWkM/BN4/S5lmAG8AHTD2lx2SUTesNtkOtBRRCrZng8FZtlqa1L0tZXzDNZmt0fTi00plXc0wVGqYHjUGFMC8AZGA+tEpJz9Brbmp/3At+m9mDEmpXYkrVqSz4wxJYwx5Ywxj6Q0A4lIIyDKlswAVMCaHKQ4Zfe4KlDB1oH3ui2R+AdQ9m5x2TpELwfGGGPW25ZVsTVlxYhIjF0ZZhpjugAlgFHAf0Skm23daSAYGGyriXqUvzdPzbWVs4wxprMxJvRusSml8pYmOEoVIMaYZGPMQiAZ651IqXlgbTLKDfbNUwDngcp2z6vYPT4DhNkSiJSfosaY7nd6cRGpCqwC3jPGTE9Zbow5bYwpkvKTej9jTKIxZh6wh9v7C/2Eteamty2WHRkvqlLK0TTBUaoAsd3q3RPrXUcHReQpESljW1cfeJNbdxOl8BIRH7sf9ywevge3mqcA5gJvikhJW1PQC3brtgFRIvJ/ts7I7iLSUERu64hsV66KwJ/AN8aYCekFIiLDRKSHiBQVETcReRBrX6KtdpstwJqA/Zs0OhcrpfI3TXCUKhiW2JpnorDeBfWErZmpHbBXRG5gTT6WYW0KsrcfiLX7GZ7Zg4tIcaAesMlu8b+xNkuFAX9g7fcC/NXP52GgqW39Zax3ThW/wyGeAqoD/0qrOSoNUVjLeRq4DnwCPGuM2WAXww1uJTkzM1hUpVQ+IdahLZRSKveISF/gcWNMX0fHopQqGLQGRymVF64DXzg6CKVUwaE1OEoppZRyOVqDo5RSSimXky9HMvbz8zPVqlVzdBhKKaWUcpDQ0NDLxhj/rO6fLxOcatWqERIS4ugwlFJKKeUgInIq/a3uTJuolFJKKeVyNMFRSimllMvRBEcpV7dhHIQF374sLNi6XCmlXJQmOEq5uorNYd4wToX8zpxtp4nYsxLmDbMuV0opF5UvOxkrpXJQQBBrGn1K4yVPcTG5C+7uq9jT5VsaBwQ5OjKllMo1WoOjlIs7ejGaZzYUJrj4I4zxWMRyn+4M+dOHS1Fxjg5NKaVyjSY4Srm4j5YfIsjzID0Tf4egsQxIXkzfpF/5fOWRWxtpnxyllIvJUIIjIg+IyGEROSYib6SxfpCI7LH9bBKRJnbrTorIXhHZJSI6uI1SeejYpRhuHlnDVx7jces7FTq/hVvnt/mH+0yK7pzIpeg4a3KjfXKUUi4m3T44IuIOfAPcD4QD20VksTHmgN1mYUBHY8w1EXkQmAS0slt/rzHmcg7GrZTKgLkhZ2jqdoL4XlMolNLnpu1oLsfE8/LGj9k/z4cylxdBn6mgfXKUUi4kIzU4LYFjxpgTxpgEYA7Q034DY8wmY8w129MtQKWcDVMplVmJyRYW7gjnRJ2nKNHgvtvW+Xd9ld+L9eae0z9gaTFCkxullMvJSIJTEThj9zzctuxOngSW2z03wB8iEioiI++0k4iMFJEQEQmJiIjIQFhKqTTZxr1ZfzSCyzEJ9A2s/Pc+NmHB9IhfzvikXiRvm/z3cXKUUsrJZSTBkTSWmTQ3FLkXa4Lzf3aL2xljmgMPAs+LSJqXisaYScaYQGNMoL9/lufWUkrZxr05vu13inh70MHz4O19bGx9biyP/8g39GNmlX9b12uSo5RyIRlJcMKBynbPKwHnUm8kIo2BH4CexpgrKcuNMedsvy8Bi7A2eSmlcktAEJbeP/L4ibf5pPQSvBaOuL2Pzdkd0GcqhWrfS1AtPyadroh5/EfrcqWUchEZSXC2A7VEJEBEvID+wGL7DUSkCrAQGGKMOWK33FdEiqY8BroC+3IqeKVU2vZ6NWFa0n10vzodAp+8vY9N+5f+et6tQTnORcax16uJdblSSrmIdBMcY0wSMBpYARwE5hpj9ovIKBEZZdvsn0Bp4NtUt4OXBTaIyG5gG7DUGPN7jpdCKXWbI1uWMdh9FbFtXoWQO/exua9eWURg7WHt96aUci1iTJrdaRwqMDDQhITokDlKZUlYMFHTBvNx0f/jg1eevzXOzR1uBX/oq/UU9vRg7qg2eR6qUkrdiYiEGmMCs7q/jmSslItJOB3Cc4kvUKReZ+uCgCBrcnOHPjbta/qz4/Q1YuKT8i5IpZTKZZrgKOVitpQfwoak+rSt4XdrYUDQHfvYdKjlR5LFsPXElTTXK6WUM9IERykXs+n4FTzchHuqlczQ9i2qlsTbw431R3WwcaWU69AERykXszXsCk0ql6CwV7ozsQDg4+lOy4BSbDymCY5SynVogqOUC4lLTGbf2UgCM1h7A8CGcfQtHcbRSzFciIyzLtPZxZVSTk4THKVcyN6zkSQmGwKrlsr4ThWb8+ChN2njtp/NJy7r7OJKKZeQsTpspZRTCDlpnfO2RdVM1OAEBCF9pvLN9EHs2BQON37T2cWVUk5Pa3CUciGhp65S3c+XUr5emdrPvUZHNpboSZeIn/4+8rFSSjkhTXCUchHGGEJPXctc7U2KsGC63FhqnV18+w868aZSyulpgqOUizgecYNrNxMz18EY/upzc7HbBL5I6sOGpp/p7OJKKaenCY5SLmLHqZT+N5noYAx/zS5epXk3Shb2ZElUzbuOfKyUUs5AOxkr5SJCT12jRGFPavj7Zm5H2wjHbkCrgNJsPn4F+nTWfjhKKaemNThKObMN4/5qStp55hrNKpdATq7P8hg2bWqU5uz1WM5cvZlzMSqllANogqOUM6vYHOYN48bhPzl6KYaHix3P1hg2bWqUBrDW4iillBPLUIIjIg+IyGEROSYib6SxfpCI7LH9bBKRJhndVymVDbaZwr0WjuAl93k8fOTNbI1hU6tMEUr7erFZJ95USjm5dBMcEXEHvgEeBOoDA0SkfqrNwoCOxpjGwHvApEzsq5TKjoAgdpTpzRiPRVhajMhW3xkRoXX10mw5cQVjTA4GqZRSeSsjNTgtgWPGmBPGmARgDtDTfgNjzCZjzDXb0y1ApYzuq5TKprBg6p+dxwzvfnjvmprt27tb1yjN+cg4Tl3RfjhKKeeVkQSnInDG7nm4bdmdPAksz+K+SqnMCAvGzBvGy+Yl9tYabW2eyuYYNm2q2/rhaDOVUsqJZSTBkTSWpVl3LSL3Yk1w/i8L+44UkRARCYmIiMhAWEopzu7g/P3fsSq2Ds2rlvirT052xrCp4e+Lf1Fv7WislHJqGUlwwoHKds8rAedSbyQijYEfgJ7GmCuZ2RfAGDPJGBNojAn09/fPSOxKqfYvsdnSAIBmVWwjGAcE/TW2TVZoPxyllCvISIKzHaglIgEi4gX0BxbbbyAiVYCFwBBjzJHM7KuUyp4dp69R1NuDmv5Fcuw121QvzaXoeE5cvpFjr6mUUnkp3QTHGJMEjAZWAAeBucaY/SIySkRG2Tb7J1Aa+FZEdolIyN32zYVyKFVg7Tx9naZVSuDmllaLcBZsGMe93ocAu/FwwoKzPHigUko5QobGwTHGLDPG1DbG1DDGfGBbNsEYM8H2+CljTEljTFPbT+Dd9lV5zG6027/oF5ZLuJmQxKELUTSrXCLnXrRic8r9MYruRY5aOxrbJuPM6uCBSinlCDqScUFgG+2WsGCSLUa/sFzI7jORWIxd/5ucEBCE9JnKJ+Zzmh79BjNvWLYGD1RKKUfQyTYLgoAgznT5lmLTBjE18T6Gea4m4oGJ1NQvLKe384x1+KmmOVmDAxAQxKmA/jx9bCJX6o2htJ4rSiknozU4BcDpKzfpudSduXRljMcijlCV95ceYG945K2NtMnKKe08fZ3qfr6U9PXK2RcOC6Zu+DzGJ/XCd8+0bA8eqJRSeU0THBdnjOHNRXtomrSHEd5/QtBYWnie4iu3/zF5xk/EJyVrk5WTMsaw8/Q1mlYpkbMvbDsf3PpOZW6RoXzn/3a2Bw9USqm8pgmOi1uy5zyWE8F86/UV7v1+gs5v4TZgJoU83fhP7H/ZP+P/rF9e2sfC6YRfi+VyTALNc7L/DVgHCewzFanekdbVSzPtQhUsvX/M1uCBSimV1zTBcUW2u6YsFsO4VUfoUvwsnp1evfUFFRCEx8DZnPGpQ/OT3xPXZJgmN05ox2lr/5tmOV2D0/6lv86HNjVKc+1mIkd8m2Vr8ECllMprmuC4IttdU6HrfuVExA3qtuiE+8Yv/tYEVUdOMT6pFyZksjY/OKGdp69T2MudOmWL5toxWlcvBaDTNiilnI4mOK7INh9RnfUv8q8ii2i749Xbm6BsfSw8+v3ExkrP8H9ur1hvBdYkJ/+zG9Mo9NQ1GlcqjsfpDbnWQbxSycJULlVIExyllNPRBMdFnSjSnB8TOjM8aR4S+OTtTVC2PhYEBPFE22osjqzJzpZfaB8LZ2CrnYs9sob95yLpXfJErncQb1/Tj83Hr5CQZMm1YyilVE7TBMdFbfvzFwa7r+JGq1cgdROUXR+Lrg3KUtrXi8nnKmsfC2dgq51zXzCcMe7zePTYW7neQbxz3bJExyexLexqrh1DKaVymiY4Lij5+Dq6HXyTyeX+he+D/7J+Ad6hCcrT3Y0ejcuz6sBFouMS8zxWlQUBQYT6PcYYj0WY1LVzuaB9TT+8PdxYdfBirh5HFWA6nYzKBZrguKDzBzbyXMIL1G3bw7rAdtV/pyaonk0rEp9k4Y/9+gXmFMKCaXB+Pj8X6o/Xzh9zve9UIS93OtTyY9XBixhjcvVYqoCym04G0LG5VI7QBMcFTXPvRYg05N46/rcWBgTdsQmqeZUSVC5ViF92nc2bAFXWhQVj5g3j+cQXOdZwzF1r53LMhnEMLHOK8GuxHL4Y/VccenWtssyuxubk5Rs8FVyY/0Z3J/anx9n0/cs6/5nKEZrguBhjDCv2X6BtDT+K+nhmaB/ZOJ7R1c6z8dhlIqLjrQv1Cyx/OruDwx2+Yn1iPe6pVird2rkcUbE5nfaMpY3bflbuv6hX1yr7bDU2x7Yu47HvNmHC1vGi9xJ2Fwmi7dkpLHDrRnT5No6OUjk5TXBczNFLMZy6cpOuDcpmfKeKzel94m1ayX7+OHBBv8Dys/YvsTquDoA1wYG71s7liIAg3PpOZYL3V5Te/pmOfK2yLyCIyIe+p/TyZ3hBfmaSz9f4dn6d1pYdHKr9LJ2jl/Ddj1NJtmiTqMq6DCU4IvKAiBwWkWMi8kYa6+uKyGYRiReR11KtOykie0Vkl4iE5FTgKm1/7L8AwP31MpHgBATh3ncq33l9he/Gj/ULLJ/bFnaV2mWL5PwEm3cTEERYtf4MjJvDlXqD9dxQ2fbq9mLMtHRheNI83GvfDxs+hz5TqTvwIy5X6sozF95h8S9zbu2gtcoqk9JNcETEHfgGeBCoDwwQkfqpNrsKvAh8doeXudcY09QYE5idYFX6/jhwkWZVSlCmmE+m9pPqHdlX4XEejZpJfNNh+gWWTyVbDKGnrt2qvckrYcE0vrCAL5N6UWj3TzoopMqWtYcvcePwGp60TQDMwSXQ/pW/Pndq3fcEnu5uxO+cy5GL0VqrrLIkIzU4LYFjxpgTxpgEYA7Q034DY8wlY8x2QO8zdqBz12PZEx5J1/rlMr9zWDCtrvzC+KReEDJFv8Dyqf3nIomJT6JlQB4mOHazi28PeJY33HXka5V1yRbDssVz+c7rKzz6TYPOb8HAn601OLZzSqp3JPHx6XRzD2H3tNe107HKkowkOBWBM3bPw23LMsoAf4hIqIiMvNNGIjJSREJEJCQiIiITL69S7khIGaeka4OymavOtX2BufedyoxCg/nO/+3cvzNHZcmGY5cBaFvDL+8Oajfy9SNNKrA4siZHO36lI1+rLFmx/wIlr+/jYIcv8azZ0bowjc7yxevfx7maA+hzYzZHK/fV5EZlWkYSHEljWWZ6frUzxjTH2sT1vIikeZYaYyYZYwKNMYH+/v5pbaLuxHZHwpnQFdTw96VGzI7MVefavsDcanTk/vplmXSmEgm9pugXWD608dhl6pYrin9R77w7qN3I190alsPH040fz+rI1yrzjDFMXHecFSX60fLeR29fmbqzfFgw9c/NZ5ZPf/wPzyTh6No8jFS5gowkOOFAZbvnlYBzGT2AMeac7fclYBHWJi+VkwKCiHn4B56NeI//FPs1852E7b/AGpTjZkIywYn19Assn4lLTGb7yWu0r5mHtTepFPPx5JEmFfhl5zkiY7VFWmWQrZZ5a9hVdodH8lSH6rifWn/nWmZbrbL0mUpAnw95LuEFkuc+obXKKlMykuBsB2qJSICIeAH9gcUZeXER8RWRoimPga7AvqwGq+5sVVwdpid3od3ZKZCN4fvbVC9NUR8P6+3iKl/ZfvIqCUkW2tVyXIIDMLRNNWITk5kfGu7QOJQTsdUyr1uxgNK+XvQtHXb3Wma7ZtE2NUpTpG5nnkt4kRth2/IyauXk0k1wjDFJwGhgBXAQmGuM2S8io0RkFICIlBORcOAV4G0RCReRYkBZYIOI7Aa2AUuNMb/nVmEKspMhyxnqsRrT4fW/T66ZCV4ebnSuW4ZVBy+RlKyzR+cnG45dxtNdaJWXHYzT0DDsR4aUO8WMLaewpIxTorfwqrsJCOJit4k8deE/fFN+OV6LRty9ltmuVhngv2X/JCHJwsfRD9zaRs85lY4MjYNjjFlmjKltjKlhjPnAtmyCMWaC7fEFY0wlY0wxY0wJ2+Mo251XTWw/DVL2VTkr4ehahoa/y4Ia7yP3vZ3t4fu7NSjH1RsJbD95LUfjVFlgN6T9xmOXaV6lJIXPbnLsB3vF5rx98xPKXd3GuiMReguvypCp5yszM7kLrcMnZ7qW2a92ayb5fM2Jbcs5ERGj55zKEB3J2AWc3reB5xNfpFar7tYF2Ry+v2Ntf7w83FixX5upHM5WtX99/2r2n4uiv/9Jx3+wBwTh1vcnvvX6iojF/9RbeFW6EpIsnNi2nOFetnFvMlvLHBBE4mNT+NJjPAdnvaGDkaoM0QTHBXyf/Aj7PJvQpnrpWwuzMXy/r7cHQbX8WbH/gs4e7Wi2ZNXn1yd5yX0eDx/5R774YPes2ZEzNQbQ9+ZsTlcf4PB4VP62Y92vfJj8P451/No67k0WaplLNLiPo1X60ePadM7VGqjnnEqXJjhOLtliWHXwIp3qlsHLI4fezg3jGFLuFOcj49gTHmldpu3djhMQxCrfHozxWIR7y6x3IM9RYcE0Oj+fH937UHz/NJKPr3N0RCofC9uzgXe9Xqdxh4etC7JSyxwWTMvLi/jB7XF89/yEOaHnnLo7TXCc3I7T17hyI4Gu9TMx91R6Kjanw67Xaed+gN/36+SbjpZwbC1tr/7Kn2WHIflhlGm7W3jLPvoez8a/QOIcvYVXpe3k5Ru8ebEztVp3x93Nbli1zNQyp5xzfadS9MF/MSr+BRL0nFPp0ATHyf2x/wKe7kKnOjk4OKJt9ujvvL+ifOj/tI+FI9k+2J9PfBG5N2tV+znO7hbeBxuWg2pBPJfwApHHtzouJpVvzdl+Bnc3od89ldPf+E7szrk+LSoTX6kdoxNf5GbY9hyL075D/1/PN319e8211mQ7FU1wnJgxhj8OXKRtDT+K+njm7IsHBHEyoD9DE+dyVWePdpyzO5hZ+d/sdG9Emxqls92BPEfY3cIrInxbbT3GGJ450f7W0AKZ/SJI/eWSlddQ+U5CkoX5oWe4r24ZymZyAuDb2J1zbm7CxIANxCYk83bEfbe2ye45V7E5zBkEi8dYn7t5wB9vW38DLBljXW9fk63naL6mCY4TO3wxmlNXblrnnsppYcE0PDefL5N6UVhnj3YY024M35+pRPuafvh4ulsXZqMDeW4oWasVE3y+Rk6u599LDlj7RqTXpJnel4s2izo32/v7x4ELXI5JYGCrKjmaDPjXbcOkQl9zfvcf/LrrbNbOF9sdioQFk5RsYdeZ68QmJhOzYy7f/msEV1d8xJfuTxC16hM2THqZhN3zsRhu3XihCU++5+HoAFQmbRhn/YcKCGLZ3gu4CfQocgw2LMq5Lz272aPX/e7B+Zv38F9tpnKInWeucy4yjte61XF0KHcWEIT3gGlMnjmE70MOcHPfGgo37nn7JHYbxlmvhC1J1vM0JaFp8BjRXT/j1NlIaidbkL0LuOFeguL7pyN6vjkvW/Kwu/BYKpaoTQePgzBvuPUzJCcEBOE1YBoTZgxm5qJDJBdag3u/nzJ3vgQEYR7/kcTZQ5lt7uehhOU8L6/Sq8QJnrs+g/UVhhNWfBjLT8XT79wUxif1YoulPt9OG8ymkj3pErUQdzc3LEkWvOBWkpVTZVTZpjU4zsbuqmP53vMMq3CGEkufztkrXbv27gcalGN2RDUudpuok286wG+7z+Pl7kaXnOxEnhsCgijU5mnGeCzih7h7+Si84e1zB6Wq7j8fGUd8UjI3ds7jpw9GUn7lszxxcwzfxnahxPZx7IyvyJrDEbdGSga9OnYmAUFc6DqBURHv80WZpbgvGJ7jF0geNTri3vIpnpMFzEzuQoRfq7vvkKrW8OD5KN5fepBtsRV4InEu1+oNYcLgFjycsByCxtLh+mK+qLyBfvxBcvvXeb7IOoa1rca20o/S49p0JsR3ZciNF4mZMZj5nz1LwvQ+XG0++vYy6jnrUJIfxzkJDAw0ISEhjg4j/woLJunnJ/gmpiPPFFqLz8BpuXale+bqTTp8sobXu9Xh+Xtr5soxVNosFkPbj/6kYcXi/PBEoKPDuTvb1asJHEH85h94Jm40yRbDdz5fcbxKP+qdnceeaiOod/wHFrh146GE5YxOfJEeRY8xOP5nTjccjXuNIMquGMWBCo9T/cQMLAY+LfkOI4cOo3JkiA7u5mT+u+wgRTZ/wgvuC62D+3V+K2cPYDvnztYaSMldE5leaAgPj/qACiUKWdcvGQMGeGT8re3nDCK2Tk/+wzOcClnOBK/P8fFwx6PNs7htm2jdrv9M6zm26WtrUt71fWg7+q/9AWg1Csv2yexo9QWxR9bQ4dyPLExuT0e33Uws8w49HulHk6Q9es5mk4iEGmOy/OGnTVTOKCCIUP/HGBP3AzHNX8nVf57KpQoTWLUkv+46y3OdaiAi6e+kcsSO09e4EBXHGw/WdXQod2dXNS8BQfgEBDFl7hNMr/Rvfj5+P0+FTWJ8Ui++2NOCf/icZGTyXHbXGMn4Js0os2ICBI2lytYJcHQa9J9J44AgzImHSJw1kLHX32P2lyEM916DZ/9MNkEoh4lPSiYs5Hf+57ka2ttGLg7okHPvn905VzEgiDD3ojwd+l++GJ9Ew8f/QddCh5F9C63bNuoNAUHExCXhkZhM0u4FVLDc4J8+K/Dx9ERSEpqbEZCyD1ibU7u+b/1tr8Fj0Pkt3AI6EJiS8ASNpef2H9hU/imePfE+0yZuppbPGrwGTMNDz1mH0SYqZxQWTJ3wucz3HUCRvbnfAbhns4ocuRjDwfPRuXocdbvf9pzHy8ON++qVcXQod2fXpAlAQBDufX9iWNFQnvRZw43WrzC6yDr2dj3C04XXQtBYmpydQ5lltgkXO78FDR+77SWleke8Bs3Go1JzRrKAbbEV2HLiyu3H1er/fCt07WL+m/w/Ttyb9ZGL7yrVORfwyP9xpd3bPGfmcGj2G0RNH8y8mh+zpuk4YmcNYdmXo0mYM5ThcS8RXKo3L7gvpFDVwFvJDcDD4621NylN8e1fstbcpPRtPLvDuj6lRiiFLeFx7/sTHS5Mo0iDbozxWMT3cfcyf/FiYo+suX17PW/zjCY4ziYsmOSfn+DZ+BeIavN/eTIuSo9G5fFwE+vdCip32foJxCcl8+uus9xfryxFz2/O3x+IqWZ+/suhJUifqfg+8C/cg16laPC/kfavpJnQ/O3LxabQ1YPEt32Vpm4nqB/8HMF/LLCu0Lus8rWTu9fzrvfrNGqXjZGL7yaNc86/62t4dXiRMR6LWO7TnbE7ijN8nQ+TYu+l+9Xp7C7Xm48ea0yP+GXWJrOL+/7+une7QzH1MVMnPAFB0P4VPI8shaCxPFN4LcevxJEweyhxKUmOnrd5SvvgOJsN41h0qSwvbyvG5jc7U754Ies/zdkduXrr8JNTt7P/XBQb3+h8+2ikKmfZPgC3tPgf/Vd68Uv3ZJpuecn52vHt7vb767n9XVRw9/PW/o6UgCDijqwhefYgki2GUzWH0Oj8fOf7mxQQhy9E021ccN7320s5ZwKfhJDJxD06majYJPx+fwa3e56ErROs26XU2qQ6x3Ls+CmvFxZMwuyhfHKjOy96/4Zvu5G4h07R8zYTstsHJ0M1OCLygIgcFpFjIvJGGuvrishmEYkXkdcys6/KHNNuDF+HleeeaiWtyQ3k/rgoG8YxolI4F6Li2BpmaybQatbcYbvSbbBxDO8UXkQTZ0xu4O9Xu6mr++Hu522qJgif2vfiOXAWZ3zq0Oj4RHaW7e18f5MCYvKGE/h4ujGwZZW8O6h9cmFrEvNZMJQyy0bg1ndq2rWGOV2rlEZTrdeAaTzUsAw/JnTGff2n1uRLz9s8k26CIyLuwDfAg0B9YICI1E+12VXgReCzLOyrMmHv2UiOR9zgseaV8u6gFZvTNvRV7vU6yC87sziolsqwi6Vb8mNCZ560zEMK6gdiGk0QXh5u1Hc/zdKSQ6h9Yirrp717+z6adDtcRHQ8v+w8x+MtKlHS1yvvDpxGckHDx6z9Y+7UxyZlu5y6OEyrqTYgiKatO/O0zxrGJ/Uifsv3OmhqHspIDU5L4Jgx5oQxJgGYA/S038AYc8kYsx1IzOy+KnMW7jiLl4cb3RuVz7uDBgQhfafyleeXVNs7HsvcYc5Zq+AkNq1axCD3VVy75yXr3Sf6gXjbBJ/dRn/JyrJP0e74OJZPeovEZIsm3Y5kN77M9C2nSLRYeK7qubxNNtNKLh4e//cOwXk9CrjtvPQeMI3NVZ5hZOxokn7WSULzSkYSnIrAGbvn4bZlGZHhfUVkpIiEiEhIREREBl++YElMtrBk9zm61CtD8UI5PPdUegKCiGn0BM/JAvZVeFyTm1ySdHwdnfaMZWKZdyjZ49/5Y3LN/MDuCt3D3Y1HRn3I6iov0PHs9yz+4nksM/tC+1RDJiwZc2vqB/j75Ik6mWLOsA0+mnB0LTO2nOK5queosPJZTTbhr/PWvUZHvhrQnBaeJ5lkHiXhtF0fUz3nck1GEpy0epRmtGdyhvc1xkwyxgQaYwL9/XNwZmxnZ3d1FHwkgis3EhhRMTzv/yHCgil7ZCazfPpT9cRs63xDKscd3rGO5xJeoM19vawL8sPkmvlBqit0Nzfh/iff41Sd4fSOmcWSxEBi13xKwtG11g3Cgq1jmuxfmOZoypGxiZyPTsL88TY3kuTWPloLlHm2c9QydxhPxM/kpWsfag1vCrvz1r+oN/fe241+cfOYerKUdb2ec7kqIwP9hQP289xXAs5l8PWzs6+CW1Mz9JnK7G2FeMD3CC22fZW3853YNQ9YLlZl1OIaTJ87DI/Mzv2i0vXWpfuIKpVIx9p2SX5AkP6d0xIWTL3weUS2fJl7Q6bw2c2HGD1zCBvLPkbba78Sdu8EPNyEKnOGcrhSX6qf+plfij9N9z8+ZtqyEAa7r+L9pIE8t+ZTFm7aR/+kxZh738Ir9VD7uXyHoiuIr9yOWZYujPGYh2n1up6vd9Cow8PMOR9J7/1vcGT2IWqfmavJYC7KSA3OdqCWiASIiBfQH1icwdfPzr4K/ro6Sp77BI2PfsPnMi7vJyG0ax54tFlF9ng0ZmKZd7RWIYeFnrrKrjPXeaJtNdz0Vvy7s7trpnj3dyk6eDpvFFnO4aKtuPfiVCbc7MQDv0KXRYbvbnSi0fGJ/JRwHz979mS7Xy/GeCziWv0htBz4T04G9GdIwlwWJwZyY/Wn7Fm/+PZj6NV1utb9voCeSb9zuuFoJGSKNqneRe/eA1nt+xC1D39HZIOhmtzkonQTHGNMEjAaWAEcBOYaY/aLyCgRGQUgIuVEJBx4BXhbRMJFpNid9s2twrisgCC2l+7Fix6LSGw+PO//IeyqWYt4e9Dvnip8cawc5xs9k7dxuCK7JsgvVx+jlK8Xff3CtE0+PanumpHqHfHs+Cqt4zb+NTHikh4WFj6QxHO+64hq9TLPFlnL4ua76HrzNwgaS81TP9Mtcj4tLlnnSnqk8AFmez9OxVXPEfrjaxidRyhDEo6t5Z6QV/my1FtU7v2+9htLh+fpDfS2rGACvSFkMonHtLk/t2RoLipjzDJgWaplE+weX8Da/JShfVXmJB9fR53wefxafBA9902Dep0d+qE7vF01pm4KY+rGk7zZvZ7D4nAJtibIYx2/Zt0Rw7hWURT65a28bYJ0RqmbjMKCYcPnMPBn3AOCoEYQjVLmCeo/E8+AICjud/vkiT7Fb3vuGdCBZ+cOY2ux1rQ+9T2bKz1JG01u0rVj02rGJ7zACz36WOeqs+83pn+/29lqBd37/UTVmFqMml2XyXOG4jlouv6tcoFO1ZDf2WYOfy7hBQp3+1e+uDqqfGASY2pcYNbW00THJf4Vp9Y6ZIHty6DsilG86bOAnkfe0lqDrMjIOCipJ09M/TwgCOnwCq3iNrLK/wlqn5nL0l9/zvOi5Ht2tY4R0fE8dbw9zSqXpO2FGbe2yevbsZ2F3Xn6YKPyPFH1Kv+L7cHxXXaf5/pZmmN0NvF8zpzdwb99XueCVwPuq1sG3Mo6/uqoYnOe3/AEWxKfZdrmGjxf7dytUURVpoVIQzYmdGaMxwK4Z6wmN1mR1pfpw+Pvvs0daoFk4M/cW7UDm8Zdof2OMWz09aJdl163tinonY7tbnz4fGcJmibt4dXIb6HiT46OLP9Ldd507vwArWcN4f/2vsJ798VR5so2/SzNQVqDk89trTCEWZeq8VSHgFsdTx19dRQQhEe/n5jk8zUe6z7Ugf+ywWIx/LJoDkM9VpPY7jUd2M+R7K6u3d2EVo88jYebG2eCp7PvbKR2Ok5hq3VMnPME5Xd8zsRCX+Oud1RmiVetTtx45Hv+m/w/Nnz/svb7ymGa4ORz3wefoLSvF73zcmqGjAgIIrbJMJ5hAdv8HtV/yCzavHoRL1//kD1txuF5/zv5ogmywEo11o5XzU4kPj6dbm7b2T7lVU3k7cRVascc04UXPRbh2eop/ZtkQ8VmD3C+1kAei57FlpKP6t8yB2mCk9/YtW/vOxvJ6kOXeKv+ZXy2fuXYuFILC6bM4RnWeYFOzyXq4J+OjsjpxMQnsXPLn3xW/E063G+bCFAH9stXSjS4j4RmwxmePI+F7t1IrNLe0SHlCwsXzKZ7/HJONRyN184fNSHPjrBg6p+bzyr/J2gcPp3ts9/723rtk5M1muDkNynt22HBfL7yCF18DvPosbfyV7W43Rgktfv/lxeSxuA+f7h+yGWEXQL7ye+H+N/NBxnWthpum+z6izi6CVLdEhZM2cMzOFT7We6NXsKM2dMdHZHD7V6/mG4H32BB9fep+vgHWuuYHXaDqHYaNY4lpUbQ4tD/2D33/dvW56vPfyeiCU5+Y9e+3eTYN3zlOR63vlPzV7WlXV+FWmWLUrt1d56KfZ4LBzc5OrL8z5bAHt68lOlbTvGvhleoE/yCfoDlR3aJfN2BH3HKvzOPHf0/1iyff/s2rn51bZeUn7sey5o/VzC/UF+GV7tmXa+1jlmXao61ns9+yMziT1Nr/5fsnvb6rQ7H+enz34logpMPmWodWOz5AGM8FuHeMh+2b6fqq/BSl9q09j7Fd0eLY7HYTTVWED78MysgiNhHJ1N2xSj+WXgRT4S/qx9g+VWqW8+bPPgknm5uXNw0k9BT1wrO1bUtKY89soaR00PYbanOUyzCs0qLW9torWPWpPosLeTlTp8XPmJ1yT40OTGJ427VSEi23L6Pfq5mmCY4+dD2Nb/QKXoJu6uPdIr27eKFPGncqjMvXv2AlcvmWRcWlA//LHhrZ0mmJd3H8OR5yD1PanKTX6X68nGv0RFL3xk84B7Czp9eKzidjgOCSHzsRxLnPEG3S1OY6POV3jWVi3zCN/JQwnLWVxiOX/QBEmcO4GTI79aV+rmaKZrg5DMJR9dSK/hFPi7yBg0Gfew07duduj3GpLL/5J7tr3B96b+0avUO5oeGc373HzzlswaCxupt4U6mSL3OJLUYzlOW+cyTrsRVaufokHKeXZMUQFxiMuNXH2FPYiVecF+IV6un9f86t9j1yekwchyHO07AYqDUkuGsnTAGy8x+0P6V2//+WqNzR5rg5DPbNq7iuYQXeLRXfzzc3ZymfVtEGDZoCHOlKyW2jyO5xQj9EITbvix2nL7Gr4vm8IP3OLwb9YTObzlNAqtswoLxOziDY/We46EbC1g26W3Xa5a1u9EhOi6RzyZ+z9Pn3qGl9ylNynNbqmbRlp0fRfrN5FLRenS6MJVf41sQs/oTDm76DWMMLBkDcwbdXqPjCudgDtEEx9HsvgAPX4hm+NG2tK5e2imHPS9/dTvDvf5kfFIv4jZ/rx+C8NeXRcSelYycFkofn60U8nTHvfHj1vVOksAqbut0XLPff9lZ83kevfQdf0x+x/pl4yrNB7ZzMvnnJ1j0+XO8EPEuhTzd8Ro0W5Py3JaqWRSgiI8HNS0niWz5Ml299vJN0iOUWTGKaR+OJG7nPOzza5c5B3OIJjiOZvsCTD6+jtfm7aaz92FeuPKB852gtn8s7wHTuNbydX6Na07CzAG3fwgWxCuLgCCu9ZiE58IRPJU0ix4eIbgNmHn7h5iTJLAFXqqr63aD/8XKyi8QFD6JbVNec95m2VRNUhaL4Y/9F9gWW4GhCXMx5ZtZkxv7eb40Kc8bdkl18e7v4jt4OmMLLyOmUieeSJzLxISuDIp5gahpg9g7faw2YaWiCY6j2T4s4mcPpcvFH/jSIx/eFp4Rdh/+/+hej8P+XYlLtHBp80zr+gJ6ZXElJp4BK72YZe5nFAvy511xKmNSXV2LCPeP+A8b/PvR6swPbCn1KKZaB8fFl1V2TVJHLkbzn68m0Gr7izRxCyO61cuUiDr89300Kc8baUwiKx1eoeql1RA0ltFF19EvsDK/ej5Io+MTWZzYgpt/fkrkgdXW7Qvo524KMcakv1UeCwwMNCEhIY4OI89sPHaZ0Kmv8aLHImsbd+e3HB1Stl27kcB7X03g7bhPMC1GUPrgDOe8us2sDeOsHyYBQYRfu8nQydu4P3I+Y73m497uBWv/hYLwdygowoIx84ax2vchml1aSJhfZ5p3fxK3Gh1v2yZfTdBpd46muL76Cwpt+IiJiQ8yzON3fDzc8Rw4C6ne8bZaBD1vHSz1exEWDHMGYYBL9Yfhu+cnvoh7iOc9FnO8aj8CLy9CnPh9E5FQY0xgVvfPUA2OiDwgIodF5JiIvJHGehGRL23r94hIc7t1J0Vkr4jsEpGCk7Vk0IXIOKbNms5QT9eabLGkrxcvj3yKhW7dKB06nsv1BjvtP1mm2K6GT4f+zuPfbeaBmPm84T4D9/ve1v4LrsbujpfOz45naZ3/UuvyH8TNHEDskTW3bZOvrqDtamz2n4vkmylTsAT/j2XJ9/CixyIKVQnEa9Bsa3ID2iSVn6Su0bGRBo9Rtud7FBk8g38UXc7hoq245/QPzEzqQvi+DX//vCkgzVbpJjgi4g58AzwI1AcGiEj9VJs9CNSy/YwEvku1/l5jTNPsZGIuw669+0Z8EuN/mMxnyZ8gdR9yuckWK0eGMNzrTya79aFw6HecXvrJ7Ru44j9ZQBCbmv+PIouf4qmkWbzqMR/p+j60Hf3Xev2ycBF2XzZubsKQAYPZ0Hw8vya2In72UK7+lk+GS0jdx6ZqB47WGUnctD6s+nYMA079k+2Vh/GI734IGovn5QN/fw1tksofUndCPrsD+s+ER2xTvQQE4R70Km3iNxFW/3l6JCxn6pZwbs4cQvLxddZt8mPSnUsyUoPTEjhmjDlhjEkA5gA9U23TE5hmrLYAJUSkfA7H6hrsOhWPmbOTRtdW4ePlRvGWA6zrXeUL0PZP5N7vJ7o8P54pnoOotO1D9sxzoTlW0hgv5KdZ01i3ZgWrizzEU5b5uLd94VZyk0K/LFxDGn1yevTsR9Vh3zOPrpQKGcdZ7xokW1J1A8jtxD7VeUnF5jBnEPELR/PD+hO88slXlNrxNX/SijEeiyjS8AG6XZ2Fe9+ftJbR2aROeMKCYcPnMPBnAvp+iM/Aabzk8xv/i+1BzIzBRC57N38k3XkkIwlOReCM3fNw27KMbmOAP0QkVERG3ukgIjJSREJEJCQiIiIDYTmpgCCSe//IzVlDaHT0Gx4rtBPPgbNvP9lc4QvQ7uq2amlfBr30CTOKP03NfV8SPPEljCv8k9lV9e84fY23Pv+Ghw7/g2bV/Hjc/KFjhhRQbd0O8KTPGhYXH0yRq3uJmzGAI1uXWlfmRWJvd14CHI+IITYxmfjdC7ix4j/8O/5Tzjd8lgcL7YOgsXgdWXr7nTeucpFVEKVqwipU+16KDJ7BY03LMdtyP8W3fcFl39p/388Va9MBjwxsI2ksS90z+W7btDPGnBORMsBKETlkjPnbJ74xZhIwCaydjDMQl1NKSrbwyrZi1IjvzBiPRdBmrHN/yd9JqgStpK8XA8Z8zMbvE+h0/kd2ujemxJUbBATYbZTfOmOmlrpzZkAQMS1fxGt6HzYkPMjbHqu50nw0DxyedOtDJqBDgbpiKvBsCYxb36k8XK0Dm1bdR+ONz1Nu2VMs2fwY3WMW4N757b9fdWf1vE+jwzBAXM3uMGsov3p0o8vNpTxrXmFo+TOMuTgVGvWj+LHJfz9Hyze+PcnR89X5pHUOBQTRAKh7/Al+dhvAA5d+IXZ6f9z6z8K7dqfbOy67mIzU4IQDle2eVwLOZXQbY0zK70vAIqxNXgWHXXVxbEIyz8/agf++73nOa3mBu8L3PL2BTlFLONngeWomH6P0khH8NGsakTcTnaPJKtUIr78snE3Cms/4LTGQFz0WUbjt09Qs7fO32zr1argAsbuCFhHa3f8YHgNnEVmyAQ9fn8Ev8S2IXPkx61YsICou8e8j0W4YB5u+vnU1nd5zW/MTi8cQGZvI5tWLiJ4+mKd2VGVibCf6xc4hvMYAvhnUnM7RS6yfOQeXaI1NQWLXXeCxV79lWf3PSEi2kDhrAJeX/NOlL8AykuBsB2qJSICIeAH9gcWptlkMDLXdTdUaiDTGnBcRXxEpCiAivkBXYF8Oxp//2b4Ur+1fRf9Jm6l0aApve87Cs8s7Bau92+4qoVqfD6HfTDzdhV6H/485nzxD4vQ+xLd5KX8NUJW6L0NAEDH3vEjC9D7M/OgZOux+nT9KDaKn7wEIGov3rqlpXk27RJOjypg0RqIt5OlO5YQTxLV9le4++5np0ZuGm8Yw7YOR3Ngxj/hkC0cvRZOQZAE3D/jjbetvuOvzazcS2B1+nfjEZG7snMe0D0dSO/gFXpeX6Va/HM8XWYcJep0mZ+fgu/AJ62dN57dg4M/Wfhqpzm09R12UXdLt6e7GgH6DOd3le/ZTA7/Q8Zz3qcnfhotx9GdvDsnQODgi0h0YB7gDU4wxH4jIKABjzAQREeBr4AHgJjDcGBMiItWx1tqAtTlsljHmg/SO52rj4BzavJSyK0Yx23I/Iz2X4XHf27d3PM3vTTM5Ia2q9LBgYlZ+RJFzG1mQ3J573Xezot5HtL6vFwGb/wH7FlrvEEjZJ7f/TqljtI0xkVy/F2tqvcXuDYsZfvbfrLE0obf7Bq7WfIxS59bdPiaFC18NqSxIY9wSM28YV8oH4Xd8ET959uX3G7X42vNLZlnuZ4jHKn4vMZCHomazs8xjBEYsYnul4QSG/0iofy+aXVrI/EJ96RnzM9OS7mOw+ypGJ77II8WOMyBuDmebvEC5xvfjvmD4rWMuGZP3/0sqfwsLxjJ3GIs9H+DeyIV4uLkR/ehUyjXpmq8+x7I7Do4O9JfT7L4kky2Gb9ccY/PqRbzis4RAyx6XGcgvR6T8IwU+SdK2H1jk24/Ol2cwI7kLT3mswNPDjZhHf6JUwy5//5DeMM56NWtJuvUhnd6HduoEJvVr2BIaGjzGzQf+x/6Nv9Fw/XMkWQxTkrox1GM12ysN477LM6wjEm/+Gu59q+Alqyrj0krsN30Naz6ANqMhZDJXu0/iyr7V1Dr0LUtLDuFr+vF45E88aZnH+KRefJHUh1c95/OC+0KmevRluf8IRiTOotvlaZxpNJqSDe6jyOKnIPBJa5N3vYehYe+c6+ejXItdAmOp2oFVy+fTetsLgHC42kACz81C8snnWnYTnIx0MlaZYWuSCuv8DS9tKUrhc5uY4jMOH093aGXrcxPQweGZscOlukrwCOhAn3nDiK3fjTEH5zPdqy/LYmrx9bxhzFzSnd6Jv+Hu7kb0jQRKwa2q+q52t53P6mdNOFKkTmBS+is0eMw6boTtNUzX9zh/PZazJ6/SMDEZy855/Lg9igFuKxktr9Kn9EnGXJlGcqN+dD0+E/r9pJ0zVcak/kKwu4035RwqNWeQ9ZwOGkuPkMn0aF8XNvwJgWN5MWQyo9u1wH3jOggcy7CQyQxr1AQ2LIWgsVTeOgGOTLuV+Keckw17335cPS9VCvvxm4CuPfpwtWpJLv72Afec+oHf3Tpy79rP8CzbyDoitxN3QtYEJ7tSXaFdK9OabaUG0WHJEzzk9jBPFP4dT3d3JPUHUD6o/nOoNOZYof0rFFrzAQSNZXDIZDr27k3Ynv4MOvU9Xyc/xsa4enw9bxg/LOxGX1ayruzzdFnzKadOhlP91Bwimr9CueD/EVmsLklV2+ObJBRe+zbX2/+LSxeikUvRBFgsmD3z2XHJnYbn5/Oz75P0WvEx85aFMth9FSMtr9Cz2DFG35jNmUajmdg0EI8F30DQWNxTamzS6pxZkN9LlXF3GImWBo9Za3Z9it9K3NuORnyK4273PPV6blyy1mym0HNSpSeNWphSvl6UcjvFqYajabN/Gp/ceJgXZwzmYp1B1Dr+k7VGxwlrBLWJKrts2W3co5P5/kwldgYv5lO+4FTJtjS/vgICOkLQa055cuSpO8yxAkCrUZiQyRzt+BU3D62ladgk5vkO4OP4xxkSN4MxHov+qspv47afrz2/ZEZyFwa7r+LbpEd4zmPxX89HJ75Ia7cDjPFYxGS3x1ld/mlGJs+m04WpnGvyAn6NuuC1cIS1un/rBOvxU5LTfNQ2rVxEes2m6T0H/TxR2ZPqc81yfB2JPz/B2uQmdEtey3K3jnRy301CrykUr39fnvbp0j44eSmtSer2r+ZU8DSqXFzNtKQujPD6k9jWL1Jm17e32sT1CzF9d+jg+1dzUqqEh5DJ0P4VLOs/J7LBEIrsncaeNuM4UaQ59Q59RcNjE9ldfSS7aj5PYNh3NDg6gbAGz5NcpT3V146GwBG4hU6x3i674fO0ExrtnKmUcnV36Cdm1nxAWK3h+B2awfh46wSeG0r05IEbv+Dp7narVSIXPye1D05uSv3G2/pwWOo/xvZG/2RH8GL6hb3DR4kvMrBMEcZcnwEN+1F017c60Ftmpf5HSJljJZ2qfLeu71Oy7WhocB8t5g2jRftX4Nx8CBpLk5DJNKlZFc7Og6CxBGydAMem33rdQiXuXt3/8HhrXwb76n7ty6CUciV36CcmA3+mekAQhD3Amz8/wUHf9jxyZQbjk3qxnQZ8O30wR6v0penZBbi5ya3Rfu0THvtlhltzZqUcJ5cvFjXBsXeHhIYGj2EeHse567GUTkwmaedctmyPZIj7KhbW/ID/NSxHhZUTrHdIaT+NnJFewmNJsiYmliTrc1sfHtZ8cKsDZ3r9FVK/hiY0SqmCLo3+kR5Br9JozQdYOrzOc9smMzegC0vCHmDQye8Zn9SL3e6NGDd9MAcqPE6LC/NxcxOMxVgTjLDgW5+7jXr/vdYH7tgUW6GolM1OUQp2gnOXhIZHxpNsMRiLIWn3fObuvUmPhOUMT3yJPqXDGBM9i8R2r/FUzYDba2j0zprckTrhSSvrtyTdSm5Snt8tgbnDsOb6XimlCqy73PnnFhCEW/UgBtm6C0S3eplRO6cyo/K9LD37IAPCJzM+qRdbLPX5Ztoglnp359Gk35lf/X1K+nrx4OyhXKoziAqHFiAC0bGJFEqy4JX6rtiUO1zN36aFypSC1QcnnX4eycfXwZxBJFkMK4o8Svvrv/J84ou0cz/IaPeF7Kk+korNu1J62TM65oRSSinXl4n+kYmBI5HQKWxq/hnupzbQ7uwUZnj345P43kTFJfGyx7y/bgrZYqn/1w0hQ9xXMdHyKM+4/cIcutKfP/jePMqc779L2nk+2TOrobtWDU56dyTY1dAkPzSO89duUibZgmX3fJYcjue+mN94PuUum+QZ/FluGGNq16JlyAS4ZyyNt06As3N0zAmllFIFQyb6R3re/w7U7EhQyg0htiE/Bj8xmLjEZDwXriO81gs8e3gGzVo8zJkLAxgTNomNFUdApZEcOOPJc+emEFx+OAkVR3Jl/LcR2Qk9/yY46SUr8PeOS2kM5Gb+eJvLbd8mdN954o6cpVtiMpadc/kpNJp+/METiWPo4HGI55Jns678cF6oWYvWodaEpvPWCbDNrne4jjmhlFKqIMvsDSEBHWDOIHwA+s+kUkAQhHW9LQlqFzKZdg1qwN5fIWgsQSGTCWpUk4WFxT87oebfBOcOo87eNnLtvoUY4EKVHhz3bU7isUu0SUzG7JrH0iMJ3BfzG98mDWLUxnEcTt7HYPdVvO41lvsKHeG5qJkcrDWKT+o1ptKqCRA4lo5bJ8D2BXdOaLQTqlJKKXVLeglPQBA0fMxaGZHBAS5Tnl+MMeezE1q+THCSLYbzkXGUsRgsexdwJMqb6qd+Zl3F0bRb/QkrNu6ny43feMW8RGxiMl8vGkGobSC3EYkv0aXQEUbEzGJF6aH41BlNxOWijDnyHQntXuPrms1h3pcQNJZ6WyfA6Vma0CillFI5Ia2+pw+Pv/15enfF2p7L5y8K2ZAvOxlXKe9ndo70uW3U2fFJvfjBYwCve81naMJclpUawrZqz+Jf1Jt7z31P/aMTiGz5Mr517sVjwfBbnYB1IDellFLK6bjkQH9l5BqX6rzG6xXq0GjLd0Q1fpkX901jTPtA2LAaWo+le8hkujfqa91hu3Ugt+JbJ8DuybcSlvTGQdEaGqWUUsolZSjBEZEHgPGAO/CDMeajVOvFtr47cBMYZozZkZF901S0HPVOzYJT1uYjz4AgKOF3e7Ji67gE3LmJSQdyU0oppQqkdBMcEXEHvgHuB8KB7SKy2BhzwG6zB4Fatp9WwHdAqwzu+3dFy0PDdndPVtLquKQDuSmllFKKjNXgtASOGWNOAIjIHKAnYJ+k9ASmGWuHni0iUkJEygPVMrBv2jKSrKTuuASawCillFIqQwlOReCM3fNwrLU06W1TMYP7AiAiI4GRAFWqVLEu1GRFKaWUUlngloFt0rpNK/WtV3faJiP7WhcaM8kYE2iMCfT3z9bYPkoppZQq4DJSgxMOVLZ7Xgk4l8FtvDKw79+EhoZeFpFTGYgtp/kBlx1wXEcqaGUuaOWFglfmglZe0DIXBAWtvAB1srNzRhKc7UAtEQkAzgL9gYGptlkMjLb1sWkFRBpjzotIRAb2/RtjjEOqcEQkJDv33DujglbmglZeKHhlLmjlBS1zQVDQygvWMmdn/3QTHGNMkoiMBlZgvdV7ijFmv4iMsq2fACzDeov4May3iQ+/277ZCVgppZRSKj0ZGgfHGLMMaxJjv2yC3WMDPJ/RfZVSSimlclNGOhkXJJMcHYADFLQyF7TyQsErc0ErL2iZC4KCVl7IZpnz5VxUSimllFLZoTU4SimllHI5muAopZRSyuUUmARHRCqLyBoROSgi+0VkjG15UxHZIiK7RCRERFqm2q+KiMSIyGuOiTzrMltmEakmIrG25btEZMLdj5C/ZOU9FpHGIrLZtv1eEfFxXAkyLwvv8SC793eXiFhEpKlDC5FJWSizp4j8ZHt/D4rIm44tQeZkobxeIvKjrby7RaSTI+PPiruUuYnt/3WviCwRkWJ2+7wpIsdE5LCIdHNc9FmT2TKLSGnb9jEi8rVjo8+8LJT3fhEJtS0PFZHO6R7EGFMgfoDyQHPb46LAEaA+8AfwoG15d2Btqv0WAPOA1xxdhtwuM9a5w/Y5Ou48LK8HsAdoYnteGnB3dDlys8yp9m0EnHB0GfLgfR4IzLE9LgycBKo5uhy5WN7ngR9tj8sAoYCbo8uRQ2XeDnS0LR8BvGd7XB/YDXgDAcBxF/pfvlOZfYH2wCjga0fHnwflbQZUsD1uCJxN7xgFpgbHGHPeGLPD9jgaOIh1riwDpFwFFMdupGUReRQ4ATjl2D1ZKbMzy0J5uwJ7jDG7bftcMcYk523U2ZPN93gAMDsv4sxJWSizAXxFxAMoBCQAUXkadDZkobz1gdW27S8B1wGnGiDuLmWuAwTbNlsJ9LY97ok1iY03xoRhHZOtJU4ks2U2xtwwxmwA4hwQbrZlobw7jTEp5/h+wEdEvNM7SIH7wVpTcRrrh0M92+MzWEdbrmpuZcebgSLAuzhhDU4WylwNuAHsBNYBHRwddy6X9yVgOtaBKHcAYx0dd26XOdX2x4GGjo47D95nT2AOEGE7v0c6Ou5cLu9IrLXOHlhrM64DvR0dew6VeRPQ07b8FSDa9vhrYLDdPpOBxx0de26W2W7bYThhDU5Wy2tb/jiwKr3XLTA1OClEpAjWZqeXjDFRwLPAy8aYysDLWP8xAP4NfGGMiXFMpDknE2U+D1QxxjTDemLNsm/jdhaZKK8H1ireQbbfvUTkPgeEnG2ZKHPK9q2Am8aYfXkebA7JRJlbAslABaxf+K+KSHUHhJwtmSjvFKzzA4YA47B+YSTlecA5II0yjwCeF5FQrM0aCSmbprG7U46Bkokyu4TMlldEGgAfA8+k++KOztzyOEv0xHq1/ordskhujQckQJTt8XqsbfUnsV4BXQVGO7oMuVnmNPZdCwQ6ugy5+B73B6babfcO8Lqjy5AX7zHwBfAPR8eeR+/zN8AQu+2mAH0dXYbcfo/tttsE1Hd0GXKizKnW1wa22R6/Cbxpt24F0MbRZcjNMtstG4aT1uBktrxYJ+w+ArTLyOsXmBocERGsVzgHjTGf2606B3S0Pe4MHAUwxnQwxlQzxlTDehX0oTHGqXqqZ7bMIuIvIu62x9WBWlj7IDmFzJYX6z9WYxEpbOuf0RE4kFfx5oQslBkRcQP6YG22cTpZKPNpoLNY+QKtgUN5FW92ZeH/uLCtnIjI/UCSMcYlzmsRKWP77Qa8DaTc6bkY6C8i3mKd3LkWsC1vo86eLJTZqWW2vCJSAliKNZHdmKFj2LIilyci7bHWyuwFLLbF/8Da2XA81uaKOOA5Y0xoqn3fBWKMMZ/lWcA5ILNlFpHewH+wVmcnA/8yxizJ88CzKCvvsYgMxnr1Z4BlxpixeR13dmSxzJ2Aj4wxrfM63pyQhfO6CPAj1s63gvUOo0/zPPAsykJ5q2FN3i1Y++Y8aYw5lddxZ8ddylyLW/MeLsT6ZWds+7yFtXkjCWtzx/I8DTqbsljmk1j7rXhhbWno6izJbGbLKyJvY/2sPmr3Ml2NtSN92scoKAmOUkoppQqOAtNEpZRSSqmCQxMcpZRSSrkcTXCUUkop5XI0wVFKKaWUy9EERymllFIuRxMcpZRSSrkcTXCUUkop5XI0wVFKKaWUy9EERymllFIuRxMcpZRSSrkcTXCUUkop5XI0wVFKKaWUy9EERymV74hIBxE57Og4lFLOS2cTV0rdRkROAmWBZLvFU40xox0TUd4RkWpAGOBpjElycDhKqWzwcHQASql86WFjzCpHHFhEPDS5UEpllzZRKaUyRES+E5H5ds8/FpHVYtVJRMJF5B8icllETorIILttvUXkMxE5LSIXRWSCiBSyrUvZ9/9E5ALwY8oyu/1PisjrIrJHRG6IyGQRKSsiy0UkWkRWiUhJu+1bi8gmEbkuIrtFpJPdurUi8p6IbLTt+4eI+NlWB9t+XxeRGBFpkyt/TKVUrtMERymVUa8CjUVkmIh0AJ4EnjC32rnLAX5AReAJYJKI1LGt+xioDTQFatq2+afda5cDSgFVgZF3OH5v4H7b6zwMLAf+YTumG/AigIhUBJYC79te8zVggYj4273WQGA4UAbwsm0DEGT7XcIYU8QYszkjfxilVP6jCY5SKi2/2Go/Un6eNsbcBAYDnwMzgBeMMeGp9nvHGBNvjFmHNcnoKyICPA28bIy5aoyJBj4E+tvtZwH+Zds39g4xfWWMuWiMOQusB7YaY3YaY+KBRUAz23aDgWXGmGXGGIsxZiUQAnS3e60fjTFHbMeaizXxUkq5EO2Do5RKy6Np9cExxmwTkRNYaz7mplp9zRhzw+75KaAC4A8UBkKtuQ4AArjbbRthjIlLJ6aLdo9j03hexPa4KtBHRB62W+8JrLF7fsHu8U27fZVSLkJrcJRSGSYizwPewDlgbKrVJUXE1+55Fdt2l7EmIA2MMSVsP8WNMfZJRU7eznkGmG53rBLGGF9jzEcZ2FdvK1XKRWiCo5TKEBGpjbVfy2BgCDBWRJqm2uzfIuJl66PzEDDPGGMBvge+EJEytteqKCLdcinUGcDDItJNRNxFxMfWablSBvaNwNpcVj2XYlNK5RFNcJRSaVliu4so5WcR1sThY2PMbmPMUawdfKeLiLdtnwvANay1NjOBUcaYQ7Z1/wccA7aISBSwCqhDLjDGnAF62uKLwFqj8zoZ+Lyz9TP6ANho63vUOjdiVErlPh3oTymVbbbbsGcYYzJSS6KUUrlOa3CUUkop5XI0wVFKKaWUy8lygiMilUVkjYgcFJH9IjImjW1ERL4UkWO2EUibZy9cpVR+ZIxZq81TSqn8JDvj4CQBrxpjdohIUaxjXKw0xhyw2+ZBoJbtpxXwne23UkoppVSuyXKCY4w5D5y3PY4WkYNYh1+3T3B6AtNsQ7lvEZESIlLetu8d+fn5mWrVqmU1NKWUUko5udDQ0MvGGP/0t0xbjoxkLCLVsA6TvjXVqopYb9FMEW5b9rcER0RGYpuDpkqVKoSEhOREaEoppZRyQiJyKjv7Z7uTsYgUARYALxljolKvTmOXNO9LN8ZMMsYEGmMC/f2znLAppZRSSmUvwRERT6zJzUxjzMI0NgkHKts9r4R1EDCllFJKqVyTnbuoBJgMHDTGfH6HzRYDQ213U7UGItPrf6OUUkoplV3Z6YPTDut8NHtFZJdt2T+wTrCHMWYCsAzojnWI9pvA8GwcTymVA+aFnGHp3vO0qFKSoNr+NKpYHDe3tFqTlVLKeeXLqRoCAwONdjJWKuf9sP4E7y89SJmi3lyKjgegZGFP2tfyp0MtPzrW9qdsMR8HR6mUUiAiocaYwKzunyN3USml8jdjDF/9eYzPVx6hR6PyfNGvKdFxiWw4dpl1RyJYf/QyS3Zbu8fVKVuUoNp+BNX2p1VAabw8dMBzpZTz0RocpVycMYaPfz/MhHXHeax5RT7p3RgPd7e/bXPoQjTBtmRnW9hVEpIttAooxYynWuHprkmOUipvaQ2OUuqOLBbDf347wNRNJxnUqgrv9WyYZn8bEaFe+WLUK1+MZzrWIDYhmbkhZ/jX4v18tuIwb3av54DolVIq6zTBUcpFJVsMby7cw9yQcJ5qH8BbPephvfkxfYW83HmibTWOXYphYvAJmlctSbcG5XI5YqWUyjla76yUC0pMtvDyz7uYGxLOi51rZiq5sff2Q/VoXKk4r83bzekrN3MhUqWUyh2a4CjlYuKTknlu5g4W7z7H/z1Ql1e61slScgPg7eHONwOb4ybCszNDiUtMzuFolVIqd2iCo5QLiU1I5ulpoaw8cJF3H67Ps51qZPs1K5cqzOd9m7D/XBT/XnIg/R2UUiof0ARHKRcRn5TM8KnbWH80go97N2JYu4Ace+376pXl2U41mL3tNAt3hOfY6yqlVG7RBEcpF7Fwx1m2nLjKJ70b0++eKjn++q/eX5tWAaV4a9E+Dl+IzvHXV0qpnKQJjlIuINlimLjuOI0qFufxFpVy5Rge7m58NaAZvt4ePDszlJj4pFw5jlJK5QRNcJRyASv2X+DklZs826lGljsUZ0SZYj58NaAZJy/f4M2Fe8mPA4UqpRRogqOU0zPG8N3a4wT4+ebJWDVtapTm1a51WLL7HNO3nMr14ymlVFZogqOUk9t47Ap7z0YyMqg67nk0K/izHWvQuW4Z3vvtALvOXM+TYyqlVGZogqOUk5uw7jhlinrzWPOKeXZMNzfh875NKFPUh+dn7uD6zYQ8O7ZSSmWEJjhKObG94ZFsOHaZEe0D8PZwz9NjlyjsxbeDmnMhKo7PVx7J02MrpVR6NMFRyolNWHecoj4eDGqV87eFZ0STyiUY1KoKM7ee5uhFvXVcKZV/aIKjlJMKu3yDZfvOM6R1VYr6eDosjpe61KawlzvvLz3osBiUUio1TXCUclKTgo/j6e7G8BwcsTgrSvl6Mea+Wqw7EsGaw5ccGotSSqXQBEcpJ3QpKo4FoWfp06IS/kW9HR0OQ9tUI8DPl/d/O0BissXR4SillCY4SjmjyRvDSLJYGBlU3dGhAODl4cZb3etxPOIGs7aednQ4SimlCY5SziYqLpFZW07TvVF5qpb2dXQ4f7mvXhna1SzNF6uO6G3jSimH0wRHKSczY8spouOTGNWxhqNDuY2I8HaP+kTFJjJ+9VFHh6OUKuCyleCIyBQRuSQi++6wvpOIRIrILtvPP7NzPKUKurjEZKZsOEmHWn40rFjc0eH8Tb3yxejfsgrTN5/ieESMo8NRShVg2a3BmQo8kM42640xTW0//8nm8ZQq0BbsCOdyTDzPdspftTf2Xrm/NoU83flQbxtXSjlQthIcY0wwcDWHYlFK3UWyxTAp+ARNKpegTfXSjg7njvyKeDO6c01WH7pE8JEIR4ejlCqg8qIPThsR2S0iy0WkwZ02EpGRIhIiIiEREfqhqFRqy/ed59SVmzzbsToieTOpZlYNa1eNKqUK8/7SAyTpbeNKKQfI7QRnB1DVGNME+Ar45U4bGmMmGWMCjTGB/v7+uRyWUs7FGMN3a49T3d+XrvXLOTqcdHl7uPOP7vU4cjGGOdvPODocpVQBlKsJjjEmyhgTY3u8DPAUEb/cPKZSrmjDscvsPxfFM0HVcXPL37U3Kbo1KEurgFJ8vvIIkbGJjg5HKVXA5GqCIyLlxFaXLiItbce7kpvHVMoVTVx3grLFvHm0WUVHh5JhIsI7D9Xn2s0Evv5TbxtXSuWt7N4mPhvYDNQRkXAReVJERonIKNsmjwP7RGQ38CXQ3xhjsheyUgXL6Ss32XDsMoNbVcXbw93R4WRKw4rF6duiMlM3neTk5RuODkcpVYB4ZGdnY8yAdNZ/DXydnWMoVdDNCz2Dm8DjgZUcHUqWvNqtNr/tOccHyw7y/dBAR4ejlCogdCRjpfKxZIthfmg4QbX9KV+8kKPDyZIyRX14vnNNVh64yIajlx0djlKqgNAER6l8LPhoBOcj4+gbWNnRoWTLiHYBVClVmH8v2a+zjSul8oQmOErlY/NCzlDK14su9co6OpRs8fF05+0e9Th6KYYZW045OhylVAGgCY5S+dSVmHhWHrhIr2YV8fJw/n/V++uXpUMtP75YeYQrMfGODkcp5eKc/1NTKRe1aOdZEpON0zdPpRAR/vlQfW4kJPO/lUccHY5SysVpgqNUPmSMYW7IGZpULkGdckUdHU6OqVW2KEPbVGX2ttPsPxfp6HCUUi5MExyl8qHd4ZEcuRhDPxepvbH3UpfalCzsxb8XH0CHxVJK5RZNcJTKh37efgYfTzceblLe0aHkuOKFPHm9Wx22nbzKkj3nHR2OUspFaYKjVD5zMyGJJbvP0b1ReYr6eDo6nFzRN7AyDSoU47/LDnIzIcnR4SilXJAmOErlM8v2XiAmPsklm6dSuLsJ7z7SgPORcUxYe9zR4SilXJAmOErlM3NDzlCtdGFaBpRydCi56p5qpXikSQUmBp/gzNWbjg5HKeVisjUXlVIqZ4VdvsG2sKu83q0OIuLocHLdm93rsvLART5cdpDvBrdwdDgqDyQmWzh/PY7TV29y5tpNTl+9ycWoOKqUKkz98sVoULE4FYr7FIjzX+UuTXCUykfmhtgm1mzhnBNrZlb54oV4rlMN/rfyCJuOXaZtTT9Hh6RyiMVi2HDsMnvPRnL6yq1k5nxkHMmWW3fPebgJfkW8WRR9lpSb6koU9rQmOxWK0aBCcRpUKEaAny8e7trooDJOE5wCKtliuHYzgZi4JKqUKoybm14tOVpSsoUFoeHcW6cMZYv5ODqcPPN0UHV+DjnDv5ccYOmL7fVLzMklJFn4dddZJgWf4OilGAD8inhTpVQhWlQtSZVShalcsjCVSxWmSunClCvmg7ubcDMhiYPnozlwLpID56PYfy6KnzafIiHJOneZt4cbDSsWp31NP4Jq+9OkUnE9V9RdaYLjoo5ejCb01DWu3Ejgckw8l2MSuBITz5WYBK7ciOfqjQRSLqI61PLjf32aUKYAfanmR+uORHApOp6+97hu5+K0WOepqs+oGaHM3HqaJ9pWc3RIKgui4xKZs+0MkzeEcSEqjrrlivJFvyZ0a1COwl7pf9UU9vKgRdWStKha8q9lSckWjkfcYP+5SA6ciyLk1DW++vMo41cfpZiPB+1q+tGhlj9Btf2oVLJwbhZPOSHJjwNtBQYGmpCQEEeH4bRmbT3NvxbvIzHZ+t4W8fbAr4gXpYt4U9rXC7+i3vjZfsfEJ/Hl6qMU9vLg08cbc5+TT+rozEZOC2HH6WtsfvM+PAvYlakxhsGTt7LvbBRrX+tESV8vR4ekMuhSVBw/bjrJjC2niI5Lok310jzTsToda/vnSj+a6zcT2HjsCsFHIgg+GsH5yDgAqvv5ElTbmuy0CiiNr7devzs7EQk1xgRmeX9NcFxHQpKFd5fsZ9bW0wTV9uc/jzSgXHEffDzd77rfsUsxvDh7JwfORzGsbTXeeLBuuvuonBURHU+b/65mRPsA/tG9nqPDcYgjF6N5cPx6ejevyCePN3F0OCodxyNi+D74BAt3nCXJYuHBhuUZGVSdJpVL5FkMxhiOR8Sw7shl1h+NYMuJK8QlWvB0FwKrlqJDbT+CavlTv3wxbYZ3QprgKMB6FfXszB2EnrrGs51q8FrXOrhn4h86PimZj5cfZsrGMOqWK8qXA5pRu6zrzIGU301cd5z/Lj/EqleCqFmm4P7dP/n9EN+uPc6XA5rxSJMKjg5HpcEYwycrDjNh3XE83d3o06IST3eoTjU/X0eHRlxiMqGnrhF8JIJ1RyI4dCEaAL8iXn/13Wlfy48yRbU53hlogqPYcfoaz84IJSo2iU/7NOahxln/Ylhz+BKvzd1NTHwSbz9Un8GtqujtmrnMGEOXz9dRvJAnC59r5+hwHCox2UL/SVs4fCGa315ony++NNUtyRbDW4v2Mmf7GfoGVuL1bnXxL+rt6LDu6FJUHOuPXib4aAQbjl7myo0EAOqVL0ZQbT8eblyBBhWK6WdcPqUJTgH38/bTvPPLfsoW92bSkEDqlS+W7de8FB3Hq3N3s/7oZbrWL8vHvRtrn4hcFHrqKr2/28zHvRvR754qjg7H4c5ej6X7+PVULlWIBc+2xdtDm0vzg4QkCy//vIule88z+t6avNq1tlMlBhaL4cD5KIKPRhB8JILQU9dITDbUKVuU3i0q8mjTinqjRT6jCU4BlZBk4b3fDjB9yyna1/TjqwHNcjQJsVgMUzaG8fHvhyjl68UX/ZrStoaOUZIbxs7fzW97zrPtrS4U0Y6RAKw8cJGnp4UwrG013n2kgaPDKfBuJiQxasYOgo9E8Fb3ejwdVN3RIWXb9ZsJLNlzngWh4ew6cx03gaDa/vRuXon765fVfoj5gCY4BVBEdDzPz9zBtpNXGRlUnbHd6uTaeBD7zkby4pydnLpyk++HtqBzXb3LKifFxCfR8oNV9GhUnk/7aMdae/9ZcoApG8OYOKQF3RqUc3Q4BVZkbCJPTt3OjtPX+O9jrlnLeDwihoU7wlm04yznIuMo6uPBQ43L07t5JVpULelUNVWuxKEJjohMAR4CLhljGqaxXoDxQHfgJjDMGLMjvdfVBOfOjlyM5okp27h2M4GPezemZ9OKuX7M6LhEBn6/laOXopn5VCtaVHXtOZLy0s/bT/N/C/Yyf1QbAqvp39VeQpKFxyds4uTlGywb00HHOXGAiOh4npiyjaOXohnfvxndG5V3dEi5ymIxbD5xhQWh4Szfd4HYxGSqli5Mj0bl6dG4PPXLa3+dvOToBCcIiAGm3SHB6Q68gDXBaQWMN8a0Su91NcFJW2xCMg99tZ7I2CSmDr+HhhWL59mxL8fE02fCZq7eSGDeqDZ6h1UOMMbwwLj1GAwrXgrSD840nLpyg4e+3EDNskWY+0ybAjc+kCOdvR7L4B+2cj4ylolDAulY29/RIeWpmPgklu89z+Ld59h0/ArJFkOAn+9fyU7dckX1fzaXZTfBydanhTEmGLh6l016Yk1+jDFmC1BCRFz7EiAXvbf0AMcjbjCuX9M8TW7AOtT6tBEt8fJwY+jkbZy9Hpunx3dFwUcvc/hiNE93qK4flHdQtbQvH/VuzM7T1/lsxWFHh1NgHLsUw+PfbeJyTDwznmxV4JIbsA6Q2iewMtOfbMX2t7rw38caUbFEIb5de4wHx6+ny+fr+HzlEY5cjHZ0qOoOcvtyqCJwxu55uG3Z34jISBEJEZGQiIiIXA7L+azYf4FZW08zMqg67Ws5prNv5VKFmTaiJTcSkhg6eStXbbdcqqz5PvgEZYp680hTHe/lbno0Ls/g1lWYGHyCNYcuOTocl7fvbCR9J24mMdnCzyO16RSglK8XA1pWYcZTrdj2Vhc+6NWQssV8+PrPo3T9Ipj7P1/HN2uOcSk6ztGhKju5neCkdVmaZpuYMWaSMSbQGBPo71/wrhbu5mJUHG8s2EODCsV4rWsdh8ZSr3wxfhgayJlrsYyYup2bCUkOjcdZ7T8XyYZjlxnWrpreBp0Bb/eoT91yRXll7i7OR2rtYW4JOXmVAZO2UMjTnXmj2lK/QvaHnXA1fkW8GdSqKrOebs3Wf3ThvUcbUrKwF5+uOEzb//7JczND2XD0MhZL/ruBp6DJ7QQnHLCfObAScC6Xj+lSLBbDq3N3E5uYzPj+zfDycHwfhFbVS/P1gGbsCb/OqBk7/prtV2XcD+vDKOzlzqCWVR0dilPw8XTnm0HNiU+yMGb2LpKS9ZzLaRuPXWbI5G34F/Vm3qg2BOggi+nyL+rNkNZVmTuqDatf7cjwdtXYfPwKgydv5d7/reW7tce5HBPv6DALrNz+tlwMDBWr1kCkMeZ8Lh/TpUzeEMaGY5f550MNqFmmiKPD+UvXBuX4sFcjgo9E8Pr83Xq1kgnnrseyZPc5+t9TheKFPR0djtOo4V+ED3o1ZNvJq3y5+qijw3Epqw9eZPjU7VQtXZifn2lDhRKFHB2S06nhX4S3etRn85v3Mb5/U8oV8+Hj3w/R5r+reX7WDjYe01qdvJatUcVEZDbQCfATkXDgX4AngDFmArAM6x1Ux7DeJj48O8craPadjeSTFYfo1qAsA1pWTn+HPNa/ZRWu3Ejg0xWHKe3rzTsP1dPOshkwddNJDDC8XTVHh+J0ejWrxKZjV/hqzTHqli/m8rct54Wle84zZs5OGlQoxk8jWlKisI5anh0+nu70bFqRnk0rcuxSDLO3nWbBjnCW7jlPtdKF6d6oPF0blKNxxeIuPwFofFIyFyLjOHs9lvPX4zh3PZZzkXGcj4zl3PVYImMTcRPBzfa94ebGX89z4qskWwmOMWZAOusN8Hx2jlFQxSYkM2bOTkr5evHRY43zbeLwXKcaRETHM2VjGH5FvXiuU01Hh5SvRcUlMmvrabo3Kk/lUjquS1b8u2cDTly+wQuzd5KYbMmTsaBc1fzQcMbO302LqiWZMuweivpojWJOqlmmCO88VJ/Xu9Xh930XmBtyhonBJ/h27XHKFPWmS/2y3F+/LG1rlHbqvngWi3VW911nrrPrzHX2nYvi7LXYNJvnSvt6Ub6ED9VK+1KysBcGg8WAxRiw/U55viabcem48PnUe0sPcOLyDWY82SpfzwMlIvzzofpcvZHAJ78fxr+IN30C819tU37x87YzxMQn8XSHAEeH4rQKe3kwbURLhk/dzss/7yIx2fB4i0qODsvpTN98knd+3U+HWn5MHNKCwl76dZBbfDzdebRZRR5tVpHrNxNYc/gSKw9c5JedZ5m19TS+Xu50qlOG++uX5d46ZfJ90/WlqDh2nrnObltCszc8kuh46w0nRb09aFixOF3qlaF88UJUKOFDhRKFqFCiEOWL+2RqCoxvBmUvTj2j86E/bLeEPxNUnXY18//8T25uwmd9mnDlRjxv/bKPeuWL5fk4Pc4gMdnClI1htK5eisaVSjg6HKfm6+3B1OH38PS0EF6fv5ukZAv9W7reFAK5ZVLwcT5cdogu9cry9cBmOu9SHipR2ItezSrRq1kl4hKT2Xz8Cn8cuMiqgxdZuvc8Hm5Cq+qluL9eWe5vUI6KDuwPlZBk4cTlGI5cjOHoxWgOX4hm79lIzkdab4f3cBPqlS9Gz2YVaFKpBM2qlKC6X5F80/Smc1HlMxej4nhgXDAVShRi0XPt8sVdUxl1JSaeh77agIe78NvoDvn+KiSv/bLzLC/9vIspwwJ1Tq8cEpeYzDPTQ1l3JIL3ejZgSJtqjg4pXzPGMH71UcatOspDjcvzRb+mOjp0PmGxGHaFX2flgYusPHCRY5diAGhQoRj325qycmuqiGSLIezyDWsSczGaoxdjOHwxmpOXb5Bk6xjt7iZUK12Y+hWK07RyCZpWLkGDCsVyNTnWyTZdiMViGDplGyGnrvLbCx3y1V1TGRV66hr9Jm6mU50yTBrSIt9k8o5mjKHHlxtISLbwx0tB+nfJQfFJyTw/cwerDl7inYfq82R7bf5LizGGj5YfYmLwCR5vUYmPezfGXc/DfOtERMxfyU7o6WsYAxVLFOL++mXpWr8s9wSUylJyaozh9NWb7A6PZM+Z6+wJj2Tv2UhiE5MBEIEqpQpTq0xR6pQrQu2yRaldtijV/X3zvJ+QJjgu5PvgE3yw7CAf9mrEwFbOW90+ZUMY//ntAG88WJdRHWs4Opx8YeOxywz6YSsf93bN2ZgdLSHJwpg5O1m+7wL/90Bdnu2k5529hCQL/1q8n9nbTjO0TVXefbiBJtlOJCI6nj8PWZOd9UcvE59koXghT2qVKUKJwl6U8vWkZGEvShT2omRhz79+l/T1opCnO4cuRLMn3NZf5mwk128mAuDl4UaDCsVoUslaG1O3XDFqlilCIa/80WSZ3QRH++DkE0cuRufrW8IzY3i7aoSeusanKw7TtHIJWlcv7eiQHG5S8An8injrHT+5xMvDja8GNOPlubv5+PdDJCZbePG+Wo4OK184c/Umo2ftYHd4JM91qsHr3erk27syVdr8i3rT754q9LunCjcTklh/9DKrD17kzNVYwq/dZN/ZRK7eTLjroKvubkKtMkXoVr8cjSsXp0mlEtQpV9Slmyg1wckHLBbDGwv2UMTbgw97NXL6Dx8R4aPejTh4PooXZu9k6YvtKVPUx9FhOczhC9GsOxLBa11ra2fOXOTh7sa4fk3xdBM+X3mExGQLr9xf2+n/n7Jjxf4LvD5vNwaYMLgFDzQs5+iQVDYV9vKgW4NydGtw+3tpjCE2MZlrNxO5diOB6zcTuXYzgRvxSdQsU4QGFYrnm5qZvKIJTj4wY+spdpy+zhf9mlC6iLejw8kRRX08+XZwcx79ZiMvzt7JjCdb4eHCVwp38/36ExTydGdQK52WIbe5uwmf9mmCp7sbX/15jBvxybzerU6B+2BPSLLw8e+HmLwhjMaVivPNwOY67pKLExEKe3lQ2MvDoXde5ScF8xsnHzl3PZaPlx8iqLY/j7pY80XdcsX44NFGbDlxlc9XHnF0OA5xMSqOX3edpW9gpXw9npErcXcT/vtYI4a2qcqUjWF0+GQNP6w/QWxCsqNDyxNnrt6kz8TNTN4QxrC21Zg3qo0mN6pA0gTHgYwxvPPLPiwGPni0oUtWpfduUYkBLSvz7drjrD540dHh5Lmpm06SbDGM0Dt78pSbm/Cfng2ZN6oNdcsV5f2lB+nwyZ98H3yCmwlJjg4v16w8cJEeX67nxKUYvhvUnHcfaeDUI+QqlR2a4DjQ0r3nWX3oEq92re3SV1j/ergBDSoU4+Wfd3Hm6k1Hh5NnYuKTmLnlFA80LEfV0jozsyPcU60UM55qZUt0ivHBsoMEfbLG5RKdxGQL7/92gKenhVC1tC+/vdieB3WeLlXAaYLjINdvJvDu4v00qlicYW2rOTqcXOXj6c63g5pjgOdm7iA+qWA0FczdfoaouCSe7lDd0aEUeCmJzvxRbahX3prodPh4DZOCjzt9onP4QjR9J27mhw1hPNGmKvOfbaMJtVLoODgOM3b+bhbsOMvi0e1oUKFgTGvwx/4LjJweyuDWVXj/0UaODidXJSVb6PjpWiqWKMTcUW0cHY5KJeTkVcavPsr6o5cp7evF44GV6FS7DC2qlnSK0cMTky2sPHCRaZtPsuXEVYp4e/Bx78b0aKy1Nsp16Dg4TmjTscvMDQlnVMcaBSa5AejaoBzPBFVnYvAJGlQozgAXnjtoYvAJzl6P5b1HGzg6FJWGwGqlmP5kK0JPXeWrP48xeX0YE9edwNfLnTY1/OhY24+OtctQpXT+ajq+FB3HnG1nmLn1FBej4qlYohD/90Bd+t1TmVLaiV2p22iCk8fiEpN5c9FeqpYuzEtdCt5AZK93q8OhC9G8tWgvJQt7ueS4HIcuRDFu1REealxe55zK51pULcXU4S2Jjktk8/ErrDsSwbojEaw6eBHYT7XShelY25+g2v60rl4aX++8/8g0xhBy6hrTNp/i933nSUw2BNX254NHq3Jv3TI63YJSd6BNVHns498P8d3a48x6qhVtnWCm8NxwMyGJgd9v5cD5KH4a3pI2NVxnpOPEZAuPfrORi1Fx/PFyR72qdkLGWCceDLYlO1tOXCU2MRkPN6FccR8qlChExRKFqFDCh/LFUx4XonwJH4r5ZH+C2aRkC5ei4zkfGcuB89HM2nqag+ejKOrjQZ8WlRncugrV/Z1vnjqlMkvnonIi+89F8sjXG3msWUU+7dPE0eE41LUbCfSZuJkLkXHMGdmahhVdo6lu/KqjfLHqiI4a60LiEpMJOXmNLSeuEH7tJuci4zh3PZYLkXF/zbScoqi3B2WL+1C8kCfFC3lSzMfj1mPbT8rzmwlJnL1ufa1bP3FciIoj2e5165UvxtA2VenZtAKFvbTSXRUcmuA4iaRkC499t4lz12NZ9UpHShTWK/tz12N5/LtNJCRbmD+qLdX8nPvOj/3nIun59UYealyecf2bOToclcuSLYaI6HjO2pKT85HWBOViVByRsYlExSUSGZtI5M1EouOTuNNHrae7UL54IcoX9/mrNqiCrYaocqnCVPfzdckxspRKj3YydhJTN51kT3gkXw1opsmNTYUShZj2ZCv6TNjEkClbWTCqLWWKOeecVQlJFl6du5uSvl68+4h2LC4I3G1NVuWK+9Ciasm7bmuxGKLjk4iKtSY9UbGJFPJyp2KJQvgV8daZvZXKBfn/fkgXcObqTf73xxE61y3DQ3ob521qlinCj8NbciUmgaFTthEZm+jokLLk6z+PcuhCNP/t1UgTWPU3bm5C8UKeVC5VmIYVi9O2ph/NqpSkTDEfTW6UyiWa4OQyi8Xw5sK9uAm856LTMWRX08olmDikBccjYnjqp+3EJTrXQIB7wyP5Zu1xejevRJf6eteUUkrlB5rg5LIfN51kw7HLvNm9ns7wehcdavnzRb+mhJy6xuhZO0hKtjg6pAyJT0rm1Xm78CvixT8fru/ocJRSStlkK8ERkQdE5LCIHBORN9JY30lEIkVkl+3nn9k5nrM5cC6Kj5cfoku9sgxq5bqD2uWUhxpX4D+PNGDVwUu8sXAv+bEDfGrjVh3lyMUYPurdmOKFsn+LsFJKqZyR5U7GIuIOfAPcD4QD20VksTHmQKpN1xtjHspGjE4pLjGZMXN2UrywJx/3bqRNUxk0pE01rtxIYNyqo5Qo5MlbPerl27/dztPXmLjuOP0CK3NvnTKODkcppZSd7NxF1RI4Zow5ASAic4CeQOoEp0D6cNlBjl6KYdqIlpQu4u3ocJzKmPtqce1GAj9sCCP8Wiyf9mlM0RwYQC0nxSUm89q83ZQr5sNbD9VzdDhKKaVSyU4TVUXgjN3zcNuy1NqIyG4RWS4id7x/VkRGikiIiIRERERkIyzHW33wItM2n+LJ9gEE1fZ3dDhOR0R495EGvN2jHisPXqTn1xs5cjHa0WHd5vOVRzgecYOPH2+cI6PXKqWUylnZSXDSajdI3WliB1DVGNME+Ar45U4vZoyZZIwJNMYE+vs7b1JwKTqOsfP3ULdcUV7vVsfR4TgtEeGpDtWZ9VQrouKSePSbjSzZfc7RYQEQeuoq368/wcBWVehQy3nPVaWUcmXZSXDCgcp2zysBt30DGWOijDExtsfLAE8RcdkJmIwxvD5vDzHxSXw5oBk+nu6ODsnptapemqUvtqde+WK8MHsn/1lygEQH3mG17kgEI6eFUqF4If7RXZumlFIqv8pOgrMdqCUiASLiBfQHFttvICLlxNZDVERa2o53JRvHzNembjrJuiMRvNWjHrXLFnV0OC6jbDEfZj/dmmFtqzFlYxgDv9/Cpai4PI0hIcnCh8sO8sSUbfgV8eanES0p4oCZpZVSSmVMlj+hjTFJIjIaWAG4A1OMMftFZJRt/QTgceBZEUkCYoH+xhnu/c2CQxei+O/yQ3SuW4Yhras6OhyX4+XhxruPNKBZlRK8sWAvPb7awDcDm9MyoFSuH/v0lZu8MHsHu8MjGdSqCu88VF9r55RSKp/TyTZzQFxiMj2/3siVGwn8/lIH/PSuqVx1+EI0o2aEcvrqTf7RvR4j2lXLtVvJf911lrcW7cNN4OPejXmwkU61oZRSeSG7k23qSMY54KPlhzh8MZrP+jTW5CYP1ClXlF9Ht6Nz3TK899sB+k7czMId4cQm5NwUDzcTkhg7fzdj5uyiTrmiLBvTQZMbpZRyIlqDk01rDl9i+I/bGda2ms4inccsFsO0zSeZsvEkp6/epIi3Bw83qUDfwEo0rVwiy7U6B89HMXrWDk5cvsHznWryUpdaeLjrtYBSSuWl7NbgaIKTDRHR8Tw4fj2lfb34dXQ77ZfhIBaLYdvJq8wNOcOyveeJS7RQq0wR+gRWolezSvgXzVitmsVimLn1FO8tPUjxQp6M79eUtjVd9qY/pZTK1zTBcZALkXEMmbyV01dv8uvodtQtV8zRISkgOi6R3/acZ27IGXaevo6Hm3Bv3TI81qwiPp7uRMTEcyUmgcsx8VyJieey7fHlmASu3Uwg2WLoVMefz/o00eZGpZRyIE1wHODk5RsMnryVazcS+P6JQNrW0Kv8/OjYpWjmhYSzYMdZLsfE37aukKc7fkW9KO3rjV8Rb/yKeOFXxJtaZYvwcOMKuLnlz/mvlFKqoNAEJ48dPB/FkMnbSLZY+GlESxpXKuHokFQ6EpMt7Dh1DU8PN/x8vfEr6kVhLx3DRiml8rPsJjj6KZ8JISevMnzqdny9PJgzsg01y+hgfs7A092NVtVLOzoMpZRSeUgTnAxae/gSo2aEUr54IaY/2ZJKJQs7OiSllFJK3YEmOBmwePc5Xvl5F7XLFmXaky2186lSSimVz2mCk44ZW07xzq/7uKdqKX4YFkgxH09Hh6SUUkqpdGiCcwfGGL5de5xPVxymc90yfDOwOYW8dJwbpZRSyhlogpOGxGQLHy8/xA8bwujZtAKf9WmCp45kq5RSSjkNTXDsGGNYdfAS/11+kBMRNxjapirvPtxAx0RRSimlnIwmODZ7wyP5YNkBtpy4SnV/X34YGsh99crk2izVSimllMo9BT7BOXc9lk9XHGbRzrOU9vXivUcb0v+eytokpZRSSjmxApvgRMcl8t3a40zeEIYBnutUg1GdauhdUkoppZQLKHAJTlKyhdnbzzBu5RGu3EigV7OKvNatDhVLFHJ0aEoppZTKIQUiwUlIsrDlxBVWHrjIHwcucDEqnlYBpfixRz2dS0oppZRyQS6b4ETFJbL2cAQrD1xk7aFLRMcnUcjTnaDafvRpUVk7ECullFIuzKUSnPORsaw6cJE/Dlxky4krJCYbSvt60b1Ree6vX5b2tfzw8dTB+pRSSilX55QJzs2EJI5ejOHIxWiOXorh8IVojl6M5lxkHAABfr6MaBfA/fXL0qxKSdx1HBullFKqQMm3Cc6N+CQuRMVxMTKOc5FxHLsUw9GL0Ry5FM2Zq7F/befl4UYN/yLcE1CK+uWLcV+9MtTwL6LNT0oppVQBJsaYrO8s8gAwHnAHfjDGfJRqvdjWdwduAsOMMTvSe91CFWqbskO/uG2Zp7sQ4OdL7bJFbT9FqF22KFVKFcZDx6xRSimlXIqIhBpjArO6f5ZrcETEHfgGuB8IB7aLyGJjzAG7zR4Eatl+WgHf2X7fVcnCnox9oA7livlYf4r7ULlUYR18TymllFIZkp0mqpbAMWPMCQARmQP0BOwTnJ7ANGOtJtoiIiVEpLwx5vzdXrhCiUI816lmNkJTSimlVEGWnSqRisAZu+fhtmWZ3QYAERkpIiEiEhIREZGNsJRSSilV0GUnwUmrF2/qDj0Z2ca60JhJxphAY0ygv79/NsJSSimlVEGXnQQnHKhs97wScC4L2yillFJK5ajsJDjbgVoiEiAiXkB/YHGqbRYDQ8WqNRCZXv8bpZRSSqnsynInY2NMkoiMBlZgvU18ijFmv4iMsq2fACzDeov4May3iQ/PfshKKaWUUneXrYH+jDHLsCYx9ssm2D02wPPZOYZSSimlVGZla6C/3CIiEcApBxzaD7jsgOM6UkErc0ErLxS8Mhe08oKWuSAoaOUFqGOMKZrVnfPlVA3GGIfcRiUiIdkZNdEZFbQyF7TyQsErc0ErL2iZC4KCVl6wljk7++vQwEoppZRyOZrgKKWUUsrlaIJzu0mODsABClqZC1p5oeCVuaCVF7TMBUFBKy9ks8z5spOxUkoppVR2aA2OUkoppVyOJjhKKaWUcjkFJsERkcoiskZEDorIfhEZY1veVES2iMgu22zmLVPtV0VEYkTkNcdEnnWZLbOIVBORWNvyXSIy4e5HyF+y8h6LSGMR2Wzbfq+I+DiuBJmXhfd4kN37u0tELCLS1KGFyKQslNlTRH6yvb8HReRNx5Ygc7JQXi8R+dFW3t0i0smR8WfFXcrcxPb/uldElohIMbt93hSRYyJyWES6OS76rMlsmUWktG37GBH52rHRZ14Wynu/iITaloeKSOd0D2KMKRA/QHmgue1xUeAIUB/4A3jQtrw7sDbVfguAecBrji5DbpcZqAbsc3TceVheD2AP0MT2vDTg7uhy5GaZU+3bCDjh6DLkwfs8EJhje1wYOAlUc3Q5crG8zwM/2h6XAUIBN0eXI4fKvB3oaFs+AnjP9rg+sBvwBgKA4y70v3ynMvsC7YFRwNeOjj8PytsMqGB73BA4m94xCkwNjjHmvDFmh+1xNHAQqAgYIOUqoDh2s52LyKPACWB/ngabQ7JSZmeWhfJ2BfYYY3bb9rlijEnO26izJ5vv8QBgdl7EmZOyUGYD+IqIB1AISACi8jTobMhCeesDq23bXwKuA041QNxdylwHCLZtthLobXvcE2sSG2+MCcM6/2FLnEhmy2yMuWGM2QDEOSDcbMtCeXcaY1LO8f2Aj4h4p3eQAveDtabiNNYPh3q2x2eAs0BVcys73gwUAd7FCWtwslDmasANYCewDujg6LhzubwvAdOxThi7Axjr6Lhzu8yptj8ONHR03HnwPnsCc4AI2/k90tFx53J5R2KtdfbAWptxHejt6NhzqMybgJ625a8A0bbHXwOD7faZDDzu6Nhzs8x22w7DCWtwslpe2/LHgVXpvW6BqcFJISJFsDY7vWSMiQKeBV42xlQGXsb6jwHwb+ALY0yMYyLNOZko83mgijGmGdYTa5Z9G7ezyER5PbBW8Q6y/e4lIvc5IORsy0SZU7ZvBdw0xuzL82BzSCbK3BJIBipg/cJ/VUSqOyDkbMlEeacA4UAIMA7rF0ZSngecA9Io8wjgeREJxdqskZCyaRq7O+UYKJkos0vIbHlFpAHwMfBMui/u6Mwtj7NET6xX66/YLYvk1nhAAkTZHq/H2lZ/EusV0FVgtKPLkJtlTmPftUCgo8uQi+9xf2Cq3XbvAK87ugx58R4DXwD/cHTsefQ+fwMMsdtuCtDX0WXI7ffYbrtNQH1HlyEnypxqfW1gm+3xm8CbdutWAG0cXYbcLLPdsmE4aQ1OZssLVMLaV6ddRl6/wNTgiIhgvcI5aIz53G7VOaCj7XFn4CiAMaaDMaaaMaYa1qugD40xTtVTPbNlFhF/EXG3Pa4O1MLaB8kpZLa8WP+xGotIYVv/jI7AgbyKNydkocyIiBvQB2uzjdPJQplPA53FyhdoDRzKq3izKwv/x4Vt5URE7geSjDEucV6LSBnbbzfgbSDlTs/FQH8R8RaRAKyfXdvyNursyUKZnVpmyysiJYClWBPZjRk6hi0rcnki0h5rrcxewGJb/A+snQ3HY22uiAOeM8aEptr3XSDGGPNZngWcAzJbZhHpDfwHa3V2MvAvY8ySPA88i7LyHovIYKxXfwZYZowZm9dxZ0cWy9wJ+MgY0zqv480JWTiviwA/Yu18K1jvMPo0zwPPoiyUtxrW5N2CtW/Ok8aYU3kdd3bcpcy1sN4lBrAQ65edse3zFtbmjSSszR3L8zTobMpimU9i7bfihbWloauzJLOZLa+IvI31s/qo3ct0NdaO9Gkfo6AkOEoppZQqOApME5VSSimlCg5NcJRSSinlcjTBUUoppZTL0QRHKaWUUi5HExyllFJKuRxNcJRSSinlcjTBUUoppZTL+X+fv6FnlxVoxgAAAABJRU5ErkJggg==\n"},"metadata":{"needs_background":"light"}}]},{"cell_type":"markdown","source":"## Resolving cartesian components\nDominated by out-of-plane contributions due to $1s \\rightarrow \\pi^{\\ast}$ transitions.\\\n(Note the factor of 1/3 for the components, which is there to make the sum equal to the isotropic average)","metadata":{}},{"cell_type":"code","source":"plt.figure(figsize=(8,3))\nplt.plot(freqs*eV,sigma,linewidth=2,color='k')\nplt.fill_between(freqs*eV,(sxx+syy+szz)/3.,(syy+szz)/3.,alpha=0.5)\nplt.fill_between(freqs*eV,(syy+szz)/3.,(szz)/3.,alpha=0.5)\nplt.fill_between(freqs*eV,(szz)/3.,alpha=0.5)\nplt.legend(('Total','x-pol.','y-pol.','z-pol.'))\nplt.xlim((eV*min(freqs),eV*max(freqs))); plt.ylim((0,1.05*max(sigma))); plt.tight_layout()","metadata":{"trusted":true},"execution_count":5,"outputs":[{"output_type":"display_data","data":{"text/plain":"<Figure size 576x216 with 1 Axes>","image/png":"iVBORw0KGgoAAAANSUhEUgAAAjcAAADQCAYAAAD79kC9AAAAOXRFWHRTb2Z0d2FyZQBNYXRwbG90bGliIHZlcnNpb24zLjQuMSwgaHR0cHM6Ly9tYXRwbG90bGliLm9yZy/Z1A+gAAAACXBIWXMAAAsTAAALEwEAmpwYAABaL0lEQVR4nO3dd3RU1drA4d+elh7SCyGQhBJ6M/SOIiAoAnZBqYqK9dobKtdyFbso18qn14YiIiqIShMVQ8DQIXSIgdATUqft74/JhACBTMLUzH7WymLKPue8m0xm3tlVSClRFEVRFEWpLzSeDkBRFEVRFMWZVHKjKIqiKEq9opIbRVEURVHqFZXcKIqiKIpSr6jkRlEURVGUekXn6QCqExMTI1NSUjwdhqIoiqIoXmbNmjVHpJSx5yvjlclNSkoKWVlZng5DURRFURQvI4TYW1MZ1S2lKIqiKEq9opIbRVEURVHqFZXcKIqiKIpSr3jlmBtFURRFUcBkMpGbm0tZWZmnQ3G7wMBAGjVqhF6vr/WxKrlRFEVRFC+Vm5tLWFgYKSkpCCE8HY7bSCk5evQoubm5pKam1vp41S2lKH7OYrFQUFDg6TAURalGWVkZ0dHRfpXYAAghiI6OrnOLlUpuFMXP3XLLLSQkJLBy5UpPh6IoSjX8LbGxu5B6q+RGUfxYYWEhn376KWVlZdx8880UFRV5OiRFUZQLppIbRfFj8+fPp7y8HIBdu3bxwAMPeDgiRVG8ydGjR+nYsSMdO3YkISGBpKSkyvtGo/G0sq+99holJSU1nrN///4uX6hXJTeK4se+/PJLAHoOvx6tTs+sWbP46aefPByVoijeIjo6muzsbLKzs5kyZQr33ntv5X2DwXBaWUeTG3dQyY2i+Knjx4+zePFihEbD4LFTGXLTXQBMnDiR48ePezg6RVG81a+//kqnTp1o164dEyZMoLy8nDfeeIO8vDwGDBjAgAEDALjtttvIyMigTZs2TJs2za0xOpTcCCGGCCG2CSF2CCEerub5G4UQ6yt+/hBCdKjy3B4hxAYhRLYQQm0YpShe4ttvv8VkMtGsQzfCImPof/UEmrTqyD///MNdd93l6fAURTmDEMIlP7VRVlbGuHHj+PLLL9mwYQNms5l33nmHu+66i4YNG7J06VKWLl0KwLPPPktWVhbr169n+fLlrF+/3hX/LdWqMbkRQmiBmcBQoDVwvRCi9RnFdgP9pJTtgenAu2c8P0BK2VFKmeGEmBVFcQJ7l1THvkMB0Gp1XP/AC+gDAvnf//7H8uXLPRmeoiheyGKxkJqaSosWLQC4+eabWbFiRbVl58yZQ+fOnenUqRObNm1i8+bNbovTkZabrsAOKeUuKaUR+AIYUbWAlPIPKaW9HXsV0Mi5YSqK4kxHjhzhl19+QaPR0q73oMrH4xql0nP49QD88ssvngpPUZRqSCld8lMbISEhDpXbvXs3M2bM4Ndff2X9+vUMGzbMrassO5LcJAH7q9zPrXjsXCYCC6vcl8BiIcQaIcQttQ9RURRnmzdvHhaLheadexDaIOq051JadwIgMzPTE6EpiuLFysrK2LNnDzt27ADgk08+oV+/fgCEhYVx8uRJwLbMREhICA0aNCA/P5+FCxee85yu4Mj2C9V1yFWb6gkhBmBLbnpXebiXlDJPCBEH/CyE2CqlPKsNqyLxuQWgcePGDoSlKEpdndklVVXj9PYArF69Giml3y4gpijK2QIDA/noo4+4+uqrMZvNdOnShSlTpgC2BUGHDh1KYmIiS5cupVOnTrRp04a0tDR69erl1jhFTU1SQogewFNSysEV9x8BkFI+f0a59sA8YKiUMucc53oKKJJSzjjfNTMyMqSr58Arir/Kz8+nYcOGCI2Wp7/8neCwBqc9L6Xkqet6c/L4EbZv306zZs08FKmiKFu2bKFVq1aeDsNjqqu/EGJNTWN4HemWWg00F0KkCiEMwHXAd2dcqDHwDTC2amIjhAgRQoTZbwOXAhsduKaiKC4yd+5crFYr6Rf1OiuxAduMjMbp7QBb642iKIqvqTG5kVKaganAT8AWYI6UcpMQYooQYkpFsSeBaODtM6Z8xwMrhRDrgEzgBynlIqfXQlEUh3399dcAdKimS8ouuYUtuVHjbhRF8UWOjLlBSvkj8OMZj82qcnsSMKma43YBHc58XFEUz7BarZUJS6sufc9ZrnHLU+NuFEVRfI1aoVhR/MjevXspLi4mLCqW0Iioc5ZLbtEWgLVr12IymdwVnqIoilOo5EZR/MjGjbYhb4kpLc5bLiQ8kuiGjSktLWXTpk3uCE1RFMVpVHKjKH5kw4YNACSmNK+xbOMWalCxoii+yaExN4qi1A/2lpsER5Kb9Pb8vewHMjMzmTx5sqtDUxTFAa/+XO1KK3V276Dzt+K6wrJly5gxYwbff/+9y66hWm4UxY+cSm5qfkNLTreNu1EtN4qi+BqV3CiKnzCZTGzduhWAhCY1L8yX1LQ1Go2WjRs3UlJS4urwFEXxQqtXr6Z9+/aUlZVRXFxMmzZtKr8k2Y0bN44pU6bQp08fWrRoUdkiU1ZWxvjx42nXrh2dOnWq3C3cHVS3lKL4iZycHEwmE9GJyQQEBddYPiAomPiUZhzYtY2///7b7cunK4rieV26dOGKK67g8ccfp7S0lDFjxtC2bduzyu3Zs4fly5ezc+dOBgwYwI4dO5g5cyZgG+u3detWLr30UnJynNutdi6q5UZR/ERtxtvY2feZUov5KYr/evLJJ/n555/JysriwQcfrLbMNddcg0ajoXnz5qSlpbF161ZWrlzJ2LFjAWjZsiVNmjRRyY2iKM7l6DTwqtSMKUVRjh07RlFRESdPnqSsrIzHHnuMjh070rFjx8oyZ26wK4Sgpr0rXUklN4riJ+qU3LRULTeK4u9uueUWpk+fzo033shDDz3Es88+S3Z2NtnZ2ZVlvvrqK6xWKzt37mTXrl2kp6fTt29fPv30U8DWLb5v3z7S09PdErMac6MofsK+xk1tuqUSmjRDHxDIzp07OXbsGFFR517VWFEU13P31O2PP/4YnU7HDTfcgMVioWfPnixZsoSBAweeVi49PZ1+/fqRn5/PrFmzCAwM5Pbbb2fKlCm0a9cOnU7H7NmzCQgIOO24rKwsZs2axfvvv+/UuIUnm43OJSMjQ2ZlZdVcUFEUhxQXFxMWFobQaHnhu7/R6Q0OH/vGPdexZ/PfLFq0iMGDB7swSkVRzrRlyxZatWrl6TDOa9y4cQwfPpyrrrrK6eeurv5CiDVSyozzHae6pRTFD2zZsgUpJXGNUmuV2AAkp9vG3agvHIqi+ArVLaUofqByvE1q7Zu0k5ravjXZu7UURVGqmj17tqdDOItquVEUP1CX8TZ29gHI69evd2pMiqIorqKSG0XxA6dmStU+uYlv0gyh0ZCTk0NZWZmzQ1MURXE6ldwoih+ozZ5SZzIEBBLbsAkWi4UtW7Y4OzRFURSnU8mNotRzx44dIy8vD0NAEFEJjep0jsQ029oUqmtKURRfoAYUK0o9Z2+1iU9phkZTt+8ziSktWLdikRpUrCietvR5555vwCPOPZ8DZs+eTVZWFm+99ZbLrqFabhSlnruQ8TZ2DVXLjaIoPkQlN4pSz1WOt2lS95VNE1NtyY1quVEU//LEE0/w+uuvV95/7LHHeOONN04r079/f+655x569uxJ27ZtK7drOXbsGFdeeSXt27ene/fubv1ypJIbRannLmSNG7vI+CQCgoI5ePAghw8fdlZoiqJ4uYkTJ/J///d/AFitVr744gtuvPHGs8oVFxfzxx9/8PbbbzNhwgQApk2bRqdOnVi/fj3PPfccN910k9viVsmNotRjUsoqM6Wa1fk8Go2mcqaVar1RFP+RkpJCdHQ0f//9N4sXL6ZTp05ER0efVe76668HoG/fvhQWFnLixAlWrlzJ2LFjARg4cCBHjx6loKDALXGr5EZR6rH8/HyOHz9OUGg44VFxF3Que9eUGnejKP5l0qRJzJ49m48++ogJEyYwfvx4OnbsyGWXXVZZRghx2jFCCKrbu/LMcq7iUHIjhBgihNgmhNghhHi4mudvFEKsr/j5QwjRwdFjFUVxHfu6NPGNm17wm4q9W0u13CiKfxk5ciSLFi1i9erVDB48mI8++ojs7Gx+/PHHyjJffvklACtXrqRBgwY0aNCAvn378umnnwKwbNkyYmJiCA8Pd0vMNU4FF0JogZnAICAXWC2E+E5KublKsd1APynlcSHEUOBdoJuDxyqK4iL25CYuOe2Cz9VQtdwoiud5YOq2wWBgwIABREREoNVqqy0TGRlJz549KSws5MMPPwTgqaeeYvz48bRv357g4ODKsTtVfffdd2RlZfHMM884NWZH1rnpCuyQUu4CEEJ8AYwAKhMUKeUfVcqvAho5eqyiKK5TteXmQtlbbjZt2oTFYjnnm5yiKPWL1Wpl1apVfPXVV+csM3r0aJ5//vQ1eKKiopg/f/5ZZceNG8e4ceMAuOKKK7jiiiucGi841i2VBOyvcj+34rFzmQgsrO2xQohbhBBZQogsNRtDUZzDmclNcFgDImISKC0tZefOnRd8PkVRvN/mzZtp1qwZF198Mc2b132tLHdzpOWmuo76s0cJAUKIAdiSm961PVZK+S627iwyMjKqLaMoSu04M7kBSEhtwYkjB9mwYQMtWtR9armiKL6hdevW7Nq167xlli1b5p5gasGRlptcILnK/UZA3pmFhBDtgfeBEVLKo7U5VlEU5ysoKCAvLw+dIYDIuIZOOadaqVhRFF/gSHKzGmguhEgVQhiA64DvqhYQQjQGvgHGSilzanOsoiiusXXrVgDiGqWicdL4GLVSsaIovqDGbikppVkIMRX4CdACH0opNwkhplQ8Pwt4EogG3q6YbmqWUmac61gX1UVRlCqc3SUFpwYVq5YbRVG8mUO7gkspfwR+POOxWVVuTwImOXqsoiiuVzkNvPGFTwO3i2uUilanZ9euXRQVFREaGuq0cyuKojiLQ8mNoii+xxUtNzq9gbjkVA7szmHTpk1069bNaedWFKVmb2e/7dTz3d7xdqeezxGhoaEUFRW59Bpq+wVFqacqk5tk5yU3oMbdKIri/VRyowBgMpkwGo2eDkNxkrKyMnbt2oXQaIhNSnHque3jbrKzs516XkVRvM+sWbPo2LEjHTt2JDU1lQEDBpz2/OzZsxkxYgRDhgwhPT2dp59+uvK5V155hbZt29K2bVtee+01t8atuqUUysrK6NChA2azmWXLlpGcnFzzQYpX2759O1arldikFHQGg1PPndy8LQBZWVlOPa+iKN5nypQpTJkyBZPJxMCBA7nvvvvOKpOZmcnGjRsJDg6mS5cuDBs2DCEEH330EX/99RdSSrp160a/fv3o1KmTW+JWLTcKn3zyCTk5OezatYvBgwdz9OjRmg9SvJorBhPbJbewJTfZ2dmqtU9R/MTdd9/NwIEDufzyy896btCgQURHRxMUFMSoUaNYuXIlK1euZOTIkYSEhBAaGsqoUaP47bff3BavSm78nMViYcaMGQAEhTVgy5YtDB8+nOLiYg9HplwIVwwmtgsKDSe2UQrl5eVq3I2i+IHZs2ezd+9epk2bxrx58yq7qeyttxVLwFQSQiClZzcaUMmNn5s/fz45OTlExSfxr7fnERnXkFWrVnH11VdjMpk8HZ5SR64aTGyX3KIdAKtXr3bJ+RVF8Q5r1qxhxowZ/O9//0Oj0TBy5Eiys7PJzs4mIyMDgJ9//pljx45RWlrKt99+S69evejbty/ffvstJSUlFBcXM2/ePPr06eO2uNWYGz8mpeQ///kPAP2umkBUfBK3Pv8Bb953AwsXLmTSpEnVblGveL9T3VKuSW4ap7dn7ZIFZGZmMmXKFJdcQ1GUs7l76vZbb73FsWPHKgcSZ2Rk8P77759Wpnfv3owdO5YdO3Zwww03VCY948aNo2vXrgBMmjSp2vE2HTt2dMnkBJXc+LEVK1aQmZlJSHgEXS8dBUBcchqT//0ubz9wEx9//DEPPvggbdq08XCkSm1YLBa2bdsGQHyy88fcADROVy03iuIPPvrooxrLxMXF8dZbb531+H333VftAOSqa9y4atal6pbyY/ZWm94jxhIQFFz5eOP09rTrNQiAxYsXeyQ2pe727NlDeXk5DWLiCQxxzQrCDZu2QqPVsXnzZpcvxqUoilJbKrnxU+vXr2fhwoUYAoPoPeLGs55Pv6g3oJIbX+Tq8TYAhoBAElNbYLVaWbt2rcuuoyiKdxs3bly1rTaeppIbP/XSSy8B0HXwVYSER571fIvOPQFYvnw5ZWVlbo1NuTCuHm9jpwYVK4p7eHrmkadcSL1VcuOHjhw5wueff45Go6X/6HHVlgmPiqVhWktKS0tZuXKlewNULsipaeCuGW9jZx93k5mZ6dLrKIo/CwwM5OjRo36X4EgpOXr0KIGBgXU6Xg0o9kMrVqzAYrHQvGN3ohIanbNcekZv8nZtZfHixVxyySVujFC5EK5c46YqNahYUVyvUaNG5ObmcvjwYU+H4naBgYE0anTuz6jzUcmNH1qxYgUAae26nLdc+kW9WTrnfRYvXsyLL77ojtCUCySldFtyE9+kGYaAIHbv3s2RI0eIiYlx6fUUxR/p9XpSU1M9HYbPUd1Sfsi+BHZa24vOWy61TWf0AYGsW7eOgwcPuiM05QLl5eVRUFBAcFgEoRHRLr2WVqsjqXlrQLXeKIriXVRy42cKCwvJzs5Go9XRpFXH85bVGwJoWtG68/PPP7shOuVC2deMSGra8qwl0V2hsRpUrCiKF1LJjZ/5448/sFqtNGreBkNgUI3l0zPUlHBfYk9uGqa1dMv1Gqe3B1RyoyiKd1HJjZ+xd0k1bZfhUHn7ejc///wzVqvVZXEpzlGZ3DRt5ZbrJVeZMeVvszkU15NSMnfuXC6//HJ+//13T4ej+BCV3PiZU+NtHEtu4hs3pUFMPPn5+axfv96VoSlOULVbyh2iE5MJDovg0KFD7N+/3y3XVPzDunXrGDhwIFdddRXff/891113HSdPnvR0WIqPUMmNHykrK+Ovv/4CIKVNZ4eOEUKQflEvQHVNebuTJ0+yc+dOtHo9cS7aU+pMQgiS09sCar0bxTmKioq47bbb6Ny5M8uWLSMkPILYpBRyc3N57LHHPB2e4iNUcuNHVq9ejdFoJDG1BSHhEQ4fl36RbZt6ldx4tw0bNiClJKFJc3R6g9uuq8bdKM70xBNPMGvWLEDQZ+RNPPLRYqZOexGNRstbb73FqlWrPB2i4gNUcuNHatslZde8U3eEEPz222+UlJS4IjTFCdzdJWVnn3W3bNkyt15XqX/Ky8v5+OOPAbjtxf9j4p33MS5+B482381l196MlJLJkydjMpk8HKni7RxKboQQQ4QQ24QQO4QQD1fzfEshxJ9CiHIhxP1nPLdHCLFBCJEthMhyVuBK7VUu3lfL5Ca0QRRJzVpjNBr5448/XBGa4gTunill17RdF3R6A6tXr/bLVVQV51mwYAHHjh0jKS2dyd2juFH8RJJxDzppYebE7kQnNmbjxo2Ve+MpyrnUmNwIIbTATGAo0Bq4XgjR+oxix4C7gBnnOM0AKWVHKWXtPlUVp7FYLJWJSaqDM6WqsidEKrnxXu6eKWUXEBRM0w5dkVKycOFCt15bqV8++ugjACYP70oHYzY6aal8rrHmCE88eBcAzzzzDDk5OR6JUfENjrTcdAV2SCl3SSmNwBfAiKoFpJSHpJSrAdVW6KXWrVvHyZMniU5MJiImvtbHp7TpBKjkxluZzWY2bNgAQJKbW24AWnftD8APP/zg9msr9cOBAwdYtGgRWp2OKQNSqi1zeydBj0uvoLy8nEceecS9ASo+xZHkJgmoOsczt+IxR0lgsRBijRDilnMVEkLcIoTIEkJkqaZt56trl5RdSitbcvPnn3+q9W680Pbt2ykrKyMqPomg0HC3X791t/4A/PTTT2o8hFInn3zyCVarlT49uxHfoPoFRvXWct66fTAarY758+dz4MABN0ep+ApHkpvq1nCvzWpdvaSUnbF1a90hhOhbXSEp5btSygwpZUZsbGwtTq84wj6YOLWG/aTOJSI2gci4hhQWFrJ582ZnhqY4gae6pOyiE5OJS06joKBAte4ptSalZPbs2QDcOrTDect2Cj9Bz169sFgsld1YinImR5KbXCC5yv1GQJ6jF5BS5lX8ewiYh62bS3EjKeWplYnbn38n8PNJaa26przVqZlSnklu4FTrjeqaUmorMzOTLVu20CAymlEXJZy3rEBw/+W2tZXee+891ZKsVMuR5GY10FwIkSqEMADXAd85cnIhRIgQIsx+G7gU2FjXYJW6ycnJ4fDhw4RFxhDTsEmdz6OSG+/lqWngVbXqYmuUVcmNUlv2FpjRQ3pj0OlqLH95p0Ti4hPYs2cPv/zyi6vDU3xQjcmNlNIMTAV+ArYAc6SUm4QQU4QQUwCEEAlCiFzgPuBxIUSuECIciAdWCiHWAZnAD1LKRa6qjFI9+54sKW06X9BO0Sq58V6emgZeVWrbiwgIDmHz5s3s2bPHY3EovqW0tJQvvvgCgKmD0x06RqPRcPMV/QB49913XRab4rscWudGSvmjlLKFlLKplPLZisdmSSlnVdw+KKVsJKUMl1JGVNwurJhh1aHip439WMW9/vzzTwBSK5KTumqYlo4hIIjt27er9Uy8yMGDBzl06BCBIWFExtdmrL9z6fQG0jvbNlr98ccfPRaH4lu+/fZbCgoKSG/Zik6NIxw+7s5Lm6HRaJk/fz4HDx50XYCKT1IrFPsBe3JjX0m2rrQ6PcktbbtAqyXQvUfV8TYX0jLnDK272b5Nq64pxVH2VpubLutWq+OSo0Po26sbZrO5cjCyotip5KaeO3HiBJs3b0ar19OoeZsLPl9qa9uGm6prynucminluS4pu5YV426WLFmitupQalReXl45ZmZMt8RaH3/X8I6AGlisnE0lN/XcX3/9hZSSRs3aoDcEXPD51Lgb7+MNM6XswqNiSW7RlrKyMpYuXerpcBQvt2LFCkpKSmjeLI3GsWG1Pv6Kzg2JjU9g165dLFmyxAURKr5KJTf1nL1LKuUCu6TsmrSyrUGRmZmpFmvzEt6U3AC0UqsVKw6yb9dxWbe6tTpqtRpuurwPQMVO4opio5Kbeq5yvE3rjk45X0h4JHHJaZSVlVV+qCqeU1xcTE5ODhqtjvjkpp4OB4A23QcAtrEUhYWFHo5G8Wb2gecjuzSq8znuvrQ5Wq2OefPmsWvXLmeFpvg4ldzUY1artXLgr337BGdQXVPeY+3atUgpSWjSDJ3B4OlwAEhu0Za0thkcP36cd955x9PhKF5q165dbNu2jZDQUHq1Sa75gHNIjgll6KD+WK1WXn31VSdGqPgyldzUY5s3b6awsJCI2EQiYs+/6mdtqOTGe9j3DKvrthquMuiG2wB4+eWXKS4u9nA0ijeyd0n179IWnVZ7Qed64hrbyusffvghR48eveDYFN+nkpt6rHK8jZO6pOxS26gZU96icluNdnXbENVVWlzUi+T0dhw+fJj33nvP0+EoXsie3FzRNeWCz9U1JYwu3bpRUlKiWgsVQCU39Zqz1rc5U2yjVILCGpCbm8v+/ftrPkBxCbPZXLn6dF13e3cVIURl681LL71EWVmZhyNSvElZWVnl7KbLM1Kccs7HrusFwJtvvqleb4pKbuqzUy03nZ16Xo1GUzn7yt5yoLjfunXrKCoqIqZhE8Kj4zwdzlnadB9Iw7SW5OXlqUXWlNMsX76c0tJSWrZoSmJ0uFPOeUX7aNKat+DQoUN88sknTjmn4rtUclNPHTt2jK1bt6I3BLhkM0X77uLLli1z+rkVx9jH26S1867xNnZCCC65YQoAL7zwglo6QKlknyU1tI5TwKsjhOCBGy4BbGO9nLmon8ViYevWreTl5anXsY9QyU09ZZ8l1ah5G3R658+iadbBtlS6WqjNc+ytZmntung4knNr3+tS4pLT2Lt3L//73/88HY7iJezjbS5kCnh1JvZOICY+gW3btrFgwYILPp/JZGL27Nm0atWKVq1akZSUhMFgICoqijZt2nDHHXewePFijEajE6JXnEklN/WUq8bb2CU1a01gcCg7duwgNzfXJddQzk1KearlxsvG21Sl0Wq55Hpb680jjzyi1kZS2LFjB9u3byc0NJQerZyb3Oi1Om67djAA06dPr3Mri9Fo5L333iM9PZ3x48fb4o2IJiwyBqHRcPz4cTZv3szbb7/N4MGDiYmJ4dprr+Wzzz7jxIkTTqyRUlc6TweguIarxtvYabU60tplsPmvZSxdupSxY8e65DpK9bZs2cLRo0cJj44jOrHua4S4Q6cBw1j98zy2//0nffv2Ze7cuQwaNOi8x2RmZrJkyRL27t3Lnj172Lt3L0IIpk+fzqhRo9wUueIKlVPAu7W/4Cng1fnX4DTe+iyONWvW8NBDD/HKK6/U6vi8vDyuvPJKVq9eDUBsoxQuuf42+l8yCKk1UGQUlBQXciRvH5tXLWXjn0s4uCeHOXPmMGfOHHQ6HX379mXEiBFcf/31xMbGOr2OSs2ElNLTMZwlIyNDZmVleToMn2WxWIiIiKCoqIinvlhJeJRr/riWff0h3737HyZMmMAHH3zgkmso1fvvf//LlClT6NjvMm56zPsXLjMbjXw+42H+XvYDOp2ODz74gJtuuum0Mkajka+//prXX3+dzMzMc55r/PjxvPbaa4SHO2cgquJeQ4YM4aeffuK9R25g0qC2LrnG59s0jJn6OFaLmS+//JJrrrnGoeOysrIYMWIEeXl5RMYnMXzCvxh+cU/6Bm4n3rgPgcCKwKwJoEwbQp4mkS2mBNbsKWDjqiVs/PNXdm9Yg9VqASAsLIxHH32Uu+++m6CgIJfU1R8JIdZIKc/bZK2Sm3po3bp1dOzYkaj4JB7/xHWbyeVu38Qrd4wiNTVVLXvuZjfeeCOfffYZo6c+Sa8rbvR0OA6xWq388OHLLJ3zPgDXXHMNISEhmM1mTCYTy5cv58CBAwAEhzWgU/9hxCWnERWfRGR8Q3asy+SHD2ZgMpaTkpLCJ598Qu/evT1ZJaWWCgsLiY2NxWQycfDrR4iLDHXJdUxCz8S5h/nkrRcJCQkhMzOT1q1bn/eYL7/8knHjxlFWVkZauy489syzDIvNJ64iqTmfMm0wedpG7LQmkH1YkP3X72T9Mp+ctbalGho3bsxzzz3H9ddfj0ajRoNcKEeSG9UtVQ/Zx2LYVxJ2lYZpLQkKDWf37t3s3buXJk2auPR6ik3V8TapXrZ43/loNBoun/QAEbGJfPv2v5kzZ85ZZRJSWtDnyrFcNPByDIGnf9NtmNaSFp178ul/HmDPjs3069ePzz//3OFv5YrnLVq0CKPRSKf2bVyW2ADopYk3r05ly6ZhZC39gVGjRpGZmVlta9/hw4eZPn06b775JgDdhlzNaw/dTFeZhcYI1JDYAARaSkiz5JBGDgOjtBy7PJ59VzzJ7JX7mPvuDPbt2saYMWP48ssvmTdvHloXdMcpp1PJTT3066+/AtC8Uw+XXkej1ZLWLoNNfy5h6dKljBs3zqXXU2z27t1Lbm4uQWENSGjS3NPh1FqfEWNIadWB/Tmb0Op0aLQ6NFotUfENSWndGSHO/WGS0KQZd7/+JT9+9CrLvv6QCRMm0LZt2xq/lSveYf78+QBc2dv1v68GluP879Gr6b87h23btjFs2DAmTZrEoEGDaNiwIYWFhbzyyiu8/PLLFBUVITQarrz1IV66oTNNTevrfF2ttBBryiOWPNr2COL67m/w5oIsvnv3JRYsWMATTzzBc88958SaKtVRyU09YzabK9eecXVyA7Yp4Sq5ca/KKeBtOvtsE3dyi3Ykt2hXp2N1egOXT36QwqOHWLv0e0aPHk1mZiZhYWFOjlJxJpPJVLm+zbXd3TMIPl2bx8znHmbM5HtYuXIlK1euBKBt27YcPHiQI0eOANCyS19GT7yTe9oUEWPa7rTrB1hK6cka2o+IoFOjp3n4X/fy/PPPk5GRoQbGu5hvvjMq57R27VoKCgqIbtiYqPgkl1+vWYfugG0xP28cv1Ufndos03e6pJxNCMHV90wnoUlztm7dyqRJk9Trz8utWLGCEydOkJLShPRGMW677pUJh5g5+1OuvO0xWnfrjyEwiI0bN3LkyBFS23Rm6oz/8dqM53ikdT4xpgMuiSHUXMADHYq4dYptWYSbb76ZzZs3u+Raio1qualnKrukOrq+1QYgMbUFwWER7Nu3j927d5OWluaW6/qzU5tleu/ife4QEBTMuCff4NWpVzFnzhx69erFXXfd5emwlHP49ttvAbi8Twe3XleD5Ia4naTfMJAdV11NfqmWPVv+RqvT0b9jU/rpNhNtWuHyOASCN65qwvqtl/LHksWMHDmSzMxMGjRo4PJr+yPVclPP2JObFp26u+V6Go2mcisGtVqx6+Xn57Nt2zYMgUE0aq7GmcQlp3Htv54F4F//+lflRqKKd5FSVo63ubZ7Y7dfP8BSSk/TX4wVP3BH+DLu7xHEQ11gpPyFaBe11lRHj4VvH7yUpNTm5OTkMGHCBLdd29+o5KYeKSsrq3xzt3cXuYPaisF9fvnlF8C28rRWp/dwNN6hY9+h9Bs1DrPZzOjRo9WK2V4oOzub/fv3ExUdTY/0BI/FIRAEm0+SatxOknFPjVO8XSHWYOSb5ycTEBzCN998o943XcSh5EYIMUQIsU0IsUMI8XA1z7cUQvwphCgXQtxfm2MV5/njjz8oKyujYVpLQiOi3Hbdph26AmrcjTt88803ALTtcbGHI/EuwyfdT7MO3cjPz2fUqFGUlZV5OiSlCnuX1ODevjsI3pm6xpm55caRgG1bEvW+6Xw1vsqEEFpgJjAUaA1cL4Q4sz38GHAXMKMOxypO4q4p4GdKaNKckAaR/PPPP+zYscOt1/YnJSUllUvXt+15iYej8S5anZ6bHn+NqPgkVq9eza233qo+MLyIvUvqup6pHo7Eezx7ZRoRkVH89ddflf8/ivM4kkJ3BXZIKXdJKY3AF8CIqgWklIeklKuBM3cpq/FYxXk8ldxoNBqatbe13ti7TRTn++mnnygtLaVxensi4xI9HY7XCW0Qxfin3sYQGMTHH3/M66+/7umQFGDPnj2sW7eOoOAQBndw7kaZviwsKJCHx10GwKOPPorFYvFwRPWLI8lNErC/yv3ciscc4fCxQohbhBBZQoisw4cPO3h6xa6goIDVq1ej0epo6oFVa1t17Qecan5WnM/eJdWu9/k3nfRnSU1bct39zwO2Acb2/zPFc7777jsA+nbrSIBBTdCt6p4hzUlIbMiWLVv45JNPPB1OveJIclPdiCtH23sdPlZK+a6UMkNKmaF2Ua295cuXY7VaadKyPQFBIW6/fuvuA9BotCxZsoTjx4+7/fr1ndFoZMGCBQC066WSm/Pp2Hcol1w/BavVyujRo7njjjsoKSnxdFh+a968eQBc3buFhyPxPgF6PdMnDQHgySefVGPFnMiR5CYXqLqcZCMgz8HzX8ixSi14qkvKLrRBFE3bd8FsNvP99997JIb6bOnSpRQUFJCQ0oK4RmrcQk2G3Hw3wyc9gFan5+233yYjI4O///77nOXz8vL44osveOONN077UTNZLszu3btZtmwZekMAo7q4flFRXzShXxpNmzZl//79vPPOO54Op95wpI1wNdBcCJEK/ANcB9zg4Pkv5FilFty9eF912vW+lO3Zq5g7dy5jx471WBz1kb17pb3qknKIRqNh4DWTbBttvnA/W7ZsoVu3blx88cUkJCSQkJBAbGws27ZtY9myZeTk5JzzXHfddRczZsxAr1dT72vrww8/BGDQgF5EhgZ7OBrvpNFoeHHyJYx+eCfPPvssEydOrHaDT6V2hCMzCoQQlwGvAVrgQynls0KIKQBSyllCiAQgCwgHrEAR0FpKWVjdsTVdLyMjQ2ZlZdWtRn7o4MGDJCYmYggM4t9zM9HpDR6Jo+BoPk9f35fAwEAOHz5MaKjrdv31JxaLhYYNG3Lo0CH+9c58kpq29HRIPsVYVsqC91/i9+8+PWeZgKBgUttcRExSE+y96abyUrJ+mY/FbKJ3797MmTOHxEQ1kNtRZrOZJk2akJeXx/w3HuKKtmol3nORUtL53s/JXr+RJ598kqefftrTIXk1IcQaKeV5B5c6NLpLSvkj8OMZj82qcvsgti4nh45VnMveapPa9iKPJTYADaLjSWndiT2b/2bRokVcddVVHoulPvn99985dOgQ0YnJNExL93Q4PscQGMToqU/SZ8QYDv+zl5PHj3Dy+BGKThwlPDqOZu270ah562oXRew25CpmT7+LlStXctFFF/HVV1/Rq1cvD9TC9yxatIi8vDwSGjVhWBvVEnE+QghemdSfgXdt5OWXX+aOO+4gLi7O02H5NLWaUj1g77Jo1aWvhyM5NdhVzVJxnlNdUpcihPtXVK0v4pLTaNN9AN2HXs2gG25j5O2Pc/G1t9CkVYdzrvac0roT9838hrR2XThw4AADBw5k/fr1bo7cN7333nsA3HDFQLTqdVujAW0b0q9nF4qLi3n22Ro7OJQaqOTGx508eZIff/wRIQTt+wzxdDiVyc33339PeXm5h6PxfVLKKlPAL/VwNP4pPCqW2/7zERmXjMBoNDJ+/HjMZrOnw/JqeXl5/PDDD2i0Ou4cpDbTddQrE/sghOCdd95hz549ng7Hp6nkxsd9//33lJWVkdrmIiJi4j0dDjENG9MwrSUnT56s7C5T6m7NmjXs37+f8Og4Gqe393Q4fkur0zNq6pNExiexdu1aZsyYUfNBfmz27NlYLBZ69u5NSgOtp8PxGZ1TY7ji0n6YTCamTZvm6XB8mkpufNyXX34JQId+Qz0cySntK1oYVNfUhXv//fcBaN97sNqTx8MCg0O55p7pAEybNo0tW7Z4OCLvZLVaK1+3U67o5uFofM+Mm7uh1en45JNP2Lhxo6fD8Vnq3dKHFRYWsnDhQoQQdPCiLgt7cjN//nzVfH8Bjh07xscffwxAr8uv93A0CkD6Rb3oNuQqjEYjEyZMUEvmV2PJkiXs3r2bqLhErm6vZkjVVrOEBoy5chBSSh577DFPh+OzVHLjw7777juMRiNp7boQHu09I+vjmzQjtlEKR44c4bfffvN0OD7rgw8+oLS0lPSLehPfuKmnw/G4poYT9Aray/DgTdwQ/Bc3Bq+ikf6k2+O44paHCI+OY9WqVbzxxhtuv763s7faXD38YgyqR6pOnr+uEwGBQXz33XcsWrTI0+H4JJXc+LA5c+YA0LGv5wcSVyWEoF0vW+uN2i+lbsxmM2+99RYAfUbe5OFoPK9DYD6XW3+hqymL5satxBtziTP+w2j5M5eFbCFAuK+FMCg0nKvvfgaAxx57jF27drnt2t5ux44dzJ07F6HRcM9QtR5TXSVGhXL/hCsBmDx5MgUFBZ4NyAep5MZHnThxgkWLFiE0Gq+cRdNtyFUIIfjss884cuSIp8PxOd999x379u0jNimFlhl9PB2ORzUynKSv5U9ENVvVaZCkl29mvOFXWgc4Z8PdaG0p3YL/4argvxkSvJVAzdmJU5vuA+g0YDilpaU8+OCDTrluffDoo49iNpu5eMgwWkarj5eqjgQGU6APdLj8UyNb07xVG3Jzc7n//vtdGFn9pF59Pmr+/PmYTCaatutCeJT3bTQam9SEVl37UV5eXrneheI4e3dH7xFj/HogcbimnOHid3Ty/GNbgixFXGpZzpUhG+rUimPAwsXBO7k1cDFjxQ/0NK4i2biLVsZNTNAvpntQLgLracdcPukBDIFBzJ07l+XLl9f6mvVNZmYmX331FXpDANMnX+bpcLxGkc7Ar5FxzAnU8WmIge+iYskJjcRcw9o/Oq2Wzx4ZiU6v5/3332fx4sVuirh+8N93TR9X2SXlRbOkztRnhG1/qbfffhuTyeThaHxHdnY2y5cvJyA4hC6DRno6HI/RCQujA/4iyFLsUHmBILU8h3GGJaQaTjh2ESnpGvQPEwMW096YTbD55FktRAGWUnqY/mJC4HISdEWVj0fEJjDgmkkA3HPPPX49uFhKWdmCdfGoMWREuH8slLcxaQSZEbF8FhbMNspBCBCCXGnkF72V/4uIID8w5LznyGgUzJ0TrgNs3VOFhYXuCL1eUMmNDzp+/DiLFy+2dUn18r4uKbsWF/UiLjmN3Nxc5s2b5+lwfMabb74JQNfBowkM8d/9ua4I2kCEqfZdTcGWk1xh/ZVhIVtorC+EavbPC9eU0yUoj4lBy+hlWkWgpaTG84abjzFc9xcGTiUxA66aSERsItnZ2cyePbvWsdYXP/74I8uXLyc4LIJ/j+uPTvr3LEmTRrAgIoYsYcRM9fs3lmNlYXAARbrzb5nzwlUtaJrein379qku0FpQyY0PmjdvHmazmWYduhEWGe3pcM5JCEGfEWMA1KwSBx0+fJhPP/0UIQS9rxjj6XA8pnnAMRobd9T5eA3Qonwzo+XP3BHwA9cEr6FX0F6GhWxhYtBSJmgW0Nv0J+HmY7U6b5j5BMOCT609YggMYvgk23iIxx57zC+/WVssFh5++GEARoyZSEfDPx6OyLNMQsOPETEclMYay5ZICz+Gh2PSnLuLyqDV8ukjo9Hq9Pz3v//lgw8+cGa49ZZKbnyMlJKZM2cC0Kn/MA9HU7OMQVcSGBzK77//zpo1azwdjtd7/fXXKS8vp1XX/sQmNfF0OJ4hJb01G6odQFwXBms5ScY9dDVl0aJ8M+GmYxd07ibG7XQJyqu836n/MJq06kh+fj7PP/+8M0L2KR9//DEbN24kKj6Jp67ujPaMsUn+xAIsjozhHwcSG7sj0sSvEbHIaloY7bo1DuahqeMAmDRpkhrH6ACV3PiYFStWsHbtWkIbRNF54OWeDqdGAUEhdBti2x3c3t2iVG/Pnj2Vy/pffN0tHo7GczoH5xNh8t4ZdgJBd/PqyvE3QgiuvM222Norr7zCzp07PRmeWx0/fpwnnngCgOsnTqEZez0ckedYgV+i4tgra7+n3i5ZTmbk+bfPmX5FGuNvuxOAW265hXfffbcuYfoNldz4mJdffhmAnpffgCHA8WmFntR7xBiEEHz++eccOnTI0+F4rQceeIDy8nI6DxhOapvOng7HI7RY6WJd5+kwaqSTZobrMivH3zRp2b5yY83bbrvtvN/C6wur1cqNN97IP//8Q+P09jw6pLHffqBIKVkaFcfOOiQ2dmsoY1do5Dmf1yD57zWNmXD73QDceuutzJo1q87Xq+/89bXok3JycliwYAE6vYFel9/g6XAcFp2YTOvuAzAajZVdasrpli1bxtdff10xhuMBT4fjMb2C9xFsKaq5oBcIMx9nUPC2yvuXT36I4LAIfv7558ptM+qzp59+moULFxISHsETTz9DojnX0yF5hJSS36Li2XYBiQ0AQrBMD8U6/TmL6KWJ/16dxMSp9wBw2223MWHCBPWlsRoqufEhr732GgAXXTLCqwcSV6f/6AkAzJgxg9xc/3wTPBeLxcLdd9u+jQ28ZjIRsQkejsgzgjQm2pl9a6PAZsatthlZQFhkNCOmPALAvffeS35+vidDc6kFCxbwzDPPIDQaxjz8MqOSjjptjJSvWRUZz0YuMLGpUIaVJeER523500kzs0Y3ZMo996PV6fnoo49IT09n5syZfr0cwZlUcuMjjh49WjnVtN+ocR6NpS6atu9C+96DKSkpUdMZz/D++++zfv16IuMa0v/qiZ4Ox2P6B+7EYHXOh4S7aJBcol1bucBfxiUjSL+oN8ePH69MWOub7du3M2aMbSbfZePu5eY+TYgy1d9E7nzWNIjlb+Hc1+x+aWRdxPn3CtRJM2+OiOPd//s/0jN6c+LECaZOnUpGRgYLFy70i27RmqjkxkfMmjWL0tJSWnbpS0KTZp4Op06uuPUh9IYAPv/8c1asWOHpcLzC8ePHK3f+vfyWB31mHJWzRWrLaG7a6ukw6qSB+Sh9gm0DaYUQXHXXUxgCg/jyyy9ZsGCBh6NzrsOHDzNy5EgKCwtp12sQ48ZcS1ezf86CXB8ew19OTmzsVgkjRwKDz1tGJ82MT9zNr6/dxp1Pv0JkXEOys7O57LLL6Nq1K/Pnz/frJEclNz6gvLy8chPF/qPHeziauouKT2LgtbZZQHfeeSdms38v9AW2QcRHjx4lrV0XOvTxrg1Q3WlA4Da0NWyx4M06mNYTpSsFbGPMht58DwC33357vVn7Ztu2bXTv3p1NmzYRl5zGhAef4TLtKp/+vdXV3w1iWKkx2lYddgGrgJ+DgzGJ839ECwRJxr280tfEos/eZMQt9xMWGUNWVhZXXnklHTt2ZOnSpS6J0dup5MYHfPbZZxw8eJDEtHSad+rh6XAuyIBrJhEZn8T69ev9fq2G2bNn88EHH6A3BDBq6hMIF71RertEfRHJ5XVfsM8b6KSZwYYNlash97lyLMnp7cjNzWXixIk+/w16xYoV9OjRg127dpHcoi23v/h/XBe9w2cGfzuLlJLVEbH8KVyX2NgdlyZ+jYxxaNUgnbTQVbONz29szPdfz2b07Y8QHh3H+vXrGThwIPfccw+lpaUujdfbqOTGyxUXFzNt2jTANijX1z8ADQGBjLjVtprp448/ztGjRz0ckWesW7eO2267DYBRU5+kYWq6hyPynP76LfXijSjBuJ9OwQcB0Gi13PDAfwgMDuXrr79m+vTpHo6u7j777DMGDRrE8ePHadNjILe/9AlXJp8kwbjf06G5lZSSVZHxrHZDYmO3S5bze2Scw8lxkKWIvmI9/7smjkVfvc9lY+9Ao9Xx+uuv06lTJzIzM10csfeoD+8p9dqzzz7L/v37adSsDRf5wKJ9jmjXaxDNO/Xg2LFj3H///Z4Ox+0KCgq46qqrKCsro+vg0ZWLHPqjZgHHiTfWn4XfelnWEKEtAyC+cVPGPPoKQgimTZvGN9984+Hoauf48eNMmDCBG2+8EaPRSO8RYxn/5Ft0iTxJO2O2p8NzKyklK6PinT542BEbKK9xgPGZAq2l9GAjcyc2441Zs4hv0oxt27bRs2fPyrXS6juHkhshxBAhxDYhxA4hxMPVPC+EEG9UPL9eCNG5ynN7hBAbhBDZQogsZwZf3+Xk5FSuWDvqzifRaLUejsg5hBCMvP1x9IYAZs+e7VcLUUkpGTduHDt27CCpaStGTX3S0yF5jpT00mysV1OI9dZyhhv+ruyeat21X+W6RWPHjmXdOu9foBDg22+/pU2bNnz00Ufo9AZG3v44o+54nJ6heQwwr/Srb8VWYGlUPBucNN27Lv4Q5ew4zwJ/5xJoLeX2pvks//BpLr56HBaLhfvvv58nnnjC57tKa1Lja1QIoQVmAkOB1sD1QojWZxQbCjSv+LkFeOeM5wdIKTtKKTMuPGT/IKXkzjvvxGQy0XXwaFJadfR0SE6V0KQZV9/zDGAbXPzbb795OCL3ePbZZ/n2228JCgnj5ife8NvZUQDtgw4TZap/i4/FmvLoG7Kn8n7/qyaQcckISkpKuOKKK7x6wbUDBw5w3XXXMXLkSA4cOEBK6078651v6TNiDIOCt9Pd9JdfJTYW4OeoOLZ6MLEBQAh+0VnZExJR+0MRpIu9LJjamfsem4ZGo+Xf//439957b71OcBx5nXYFdkgpd0kpjcAXwIgzyowAPpY2q4AIIUSik2P1K/PmzWPx4sUEhYYzfGL97LrJuORK+o0ah9ls5qqrrmL//vrdh//888+f2ofngReIadjYwxF5jsBKN9Z7OgyX6WhaRyP9ScDWUnn1PdNp3LID+/bto2/fvuzevdvDEZ7OaDTy0ksv0aJFC7788ksMgUFcedtjTH35UxIapzIiZCNtjevrVStbTcxCsOgCt1RwJquAH/VWVkbGYa7DmJ8gSxEvXRzIM9OnodXpef3115k8eXK9XfjPkeQmCaj6qZNb8ZijZSSwWAixRgjhv7sB1kJJSQn33nsvAEPH3UNoRJSHI3Kd4ZMfoHmnHhw6dIiRI0fW2xH906dP59FHH0UIwbX3PUvbnpd4OiSP6h+8l1BzgafDcBmttDBEuxqdsH1w6A0BTHhqJolp6Wzbto0ePXqwdu1aD0dps2jRItq1a8eDDz5IUVERbXtczAP/XUDfkTcRE2BkTNAq0ow5ng7TrYwaDT9ExtRpE0yXEoL1lDM3MppjhvOvg1MdDZJHeuiY8cIz6AMC+eCDD7jpppvqZYLjSHJTXYp4ZlvW+cr0klJ2xtZ1dYcQom+1FxHiFiFElhAi6/Dhww6EVX8988wz7Nu3j6Smreg57DpPh+NSWq2Omx57laiERqxZs4abb74Zo9Ho6bCcRkrJtGnTePLJJxFCcN39L/j1AGKAGF0pbU2+MfbkQoSZjzMsaHPl+JvwqFimvvwpzTv1ID8/n759+7Jo0SKPxbdp0yaGDRvG0KFDycnJIa5RKpOffY8JT79NdEIjugTlcYPmF2JMBzwWoyeU6PR8GxHFP9J734eOShNfhRjIioil5Dx7UVVHA9zd2co7r/ybgOAQPvvsMyZNmoTV6sikc9/hSHKTCyRXud8IyHO0jJTS/u8hYB62bq6zSCnflVJmSCkzYmNjHYu+HlqwYAH/+c9/EEIwamr9GUR8PiHhkUx4aiYBQSF89dVXXH755RQV+f76GSaTifvvv79yD54bHnqJLoOu9HRYniUlQ/V/o6vDwm8mjfC5MQJpxhwGhZxawycoJIzJ/36XzgMvp7i4mOHDhzNjxgxMJpPbYsrPz+fWW2+lffv2/PjjjwQEh3D55Ae5/7/f0apLX0I1Rq4NWUNv05/ord77Ae8KBfpA5oWHc0S67/dRVxYkmcLI/4UFszAqjj0hEQ6tiQO2cTgTWpXz7ktPYAgMYvbs2dx+++0+9/d1PqKmygghdEAOcDHwD7AauEFKualKmWHAVOAyoBvwhpSyqxAiBNBIKU9W3P4ZeEZKed6vKxkZGTIry/8mVm3fvp2MjAwKCwu5bPx9XHL9rZ4Oya3252zkvccnU3TiGBkZGfzwww/ExdVuCqS32L9/P9dddx1//PEHGo2WGx+eQaf+l3k6LI/rGpRHL9OftTqmVKtjVXgUW2QZBqEhTOgIQ0OCxUqHgiN4e/ovkWTqu/JH6akxVlJKfvzoVX794r8AtG3blpkzZ9K3b7UN206Rn5/P66+/zptvvklRUREajZYew65l8Ng7bV3fUtIl+ABdLWt9bo8vZzgcEMIPIQGU+PCKy8FCS6rUkWosJ6m4wKG/jQ83SKY88AwmYzl33303r776qtevpyaEWFPTBKUak5uKE10GvAZogQ+llM8KIaYASClnCdv/xFvAEKAEGC+lzBJCpGFrrQHQAZ9JKZ+t6Xr+mNwUFRXRrVs3Nm/eTLvelzLuiTe8/gXmCof/2cu7j07k6IH9NG3alJ9++ommTZt6Oqxa+f7777n55ps5duwYDWLiGfvIK6S1UxMFw7RGbtYuRu/gB6eUks0NYliltVJ+ju+kMULPJUUlRBlLnBmq01mB5bpeZJedvuP75szlzJs5naMHbEMWx4wZw3PPPUdycnI1Z6mbXbt2MWPGDD788EPKy23/9226D2D4pAeIb2z724rVlTBYv45Y05mN8v5hW1gUK3RWTGeNuPBdBjSkCj2di04SaTz3WEaJZNZaC3c9Mh1zRWvziy++6NWfP05LbtzN35IbKSXXXHMNX3/9NfGNm3L3G3MIDA71dFgec/L4Ed577BZyd2wiIiKCV155hXHjxnn1HxvYFj2bNm0ab775JgAtu/Tlhgf/Q2iD+jsgvDauDl5LI6Njs4RKtToWNojkoAPjHrQIelj1tDtxyKtfIxY0LNb2ZWt59GmPG8vLWDrnfX794r+YTUY0Gg2DBg1i/PjxjBgxgsDA2i8XcOjQIebPn88333zD4sWLK8dTtO1xMQOvnUxK604A6ISFfkF7aGPa4Jd7RBk1GlZExJBjLXPbqsPuJiS00ATQ5WQB4abqv1hIJK/+ZeSBx5/FajFz6623MnPmTLReOixCJTc+4vnnn+fRRx8lMDiUe978irjkNE+H5HFlJUV8+sL9bFpl2/Rt0KBBvPvuu6SkpHg2sGqYTCZmzZrFU089xbFjx9BotAwdfw8Drp6ERuNPq4KcW6egA/Qz/e7QVOJyjYb5EVG1HveQLAK49MQRArx4YKQFDWv0nfm9pPFZH6ZH8vbx40evsuGPn7FUjMGJiIhg8ODBdOjQofKnYcOGpyVxJSUl5OTksHXrVrZs2cLy5cv57bffKhMajVbHRRdfwYCrJ5LQpFnlca0CjtBH/E2I2bs39pRSUmgIIshixODE321+YAg/BwdSKP1jA1+NhDYigO4njqCXZ/8/SiSvZpp5+MnnMBnLueaaa/jkk08wGAweiPb8VHLjA1588UUeeughACY8NdPvpwhXJaVkza/f8e07z1Fy8gQhISE888wzTJkyheDg2k+DdDaLxcL8+fN59NFH2bZtGwBNO3RlxK2P0KjZmetc+q/G+kJGsMShQcQmjWBBRIxDLTbViRB6hhUV0cBYVqfj3WW/IY0Fpe0ol7qznisuPM7apT+wevE35G7fdNbzQgi0Wi0ajQatVktZWdlZA0G1Oj0tOvekXa9BtO158Wmth1G6UgYZNpFo3OO169YU6/TsCwonV6flH2G2jYORkmCNjgboiJSQZDbRuLig1snswaBQNgQGs4PyetQJ5bgYoWfwySIamM7+G5FI3t+k586Hnqa8pJghQ4Ywd+5cr3i/rUolN15MSsn06dOZNm0aQgiuuutpegy71tNheaWTx48w7+1/k718IQDR0dFMnTqVqVOnEhMT4/Z4jhw5wgcffMA777zD3r22fZFiGjbhilsepE2Pi726a8TdwjXl3KBfSpCluMayZiH4ITLmgqfgBqBhcLmFRiXe3SJxUhfBAnN38s0h5yyTv28ne7dk88/OLeTt2kberq2UFp1eL41WR2xSE+KS04hv3JTE1HRadulDUEjYaeXCtEb6BuygqSnHa7ugrMC6BjFkasxYHEg9BJAoDDSxSOJMRiLLSwi2nN4SI6WkVKdnf3A4G/RaDnnxFG93CUDDIKOVxsVnrzUlkXyzO5hx902nqOAY3bp146uvvnLqOLALpZIbLyWl5NFHH+WFF15AaDRc96/n1RRhB2z+axmL/zeTfdtsK9sGBQUxduxYrr76avr164deX7v1HmqjoKCAn376ifnz5zN37tzKgZnRicn0HXkzPYZdi07vfc23nqTFypig3x3aYsECLIqKc9qiaQLoY9HTpuCwVyebZqFlp6ElK0rTKLLW/PqRUiKtVqxWC1arFWm1ojMY0GrPbgGyC9KY6Bu4ixamrei8uAvmuCGIJaGh5F9g8hGIhkihAwTFWCiymrF670vAY4SELhi46Hj1Y9V+ORjCNfe8wPFDB4iOjubjjz/mssu8Y8anSm68kMlk4t5772XmzJlotDrGPPwSHft5xwvGF0gp2bUhi6Vfvc/mv5ZVPh4REcGwYcMYPnw4GRkZpKWlXdB4l4KCArKzs1m9ejULFy5kxYoVmM22DwYhBK269qPX5TeQntFHjaupjpSMDFlPinGHA0Ulv0bHk+OC1WCbiAD6Fx4nxOzd65aYhY4cfUt+K0ulxIEkp0ZSkhpQQHvdfpJNu9F78botUkrWRcTxl8bkUGuN4lzpBND/+KFqp41vKIni2qf/x5bVKwF46KGHmD59uku/SDpCJTdeZt++fVx33XX8+eef6PR6bnrsNTXG5gIc3LOdtUu/Z8Mfv5C/9/QP0bCwMDp06EC7du1ITEwkLi6OuLg4oqOjEUJgtVqxWq2YTCby8/PJy8vjwIED7N+/n/Xr17Njx+nn02i0pLTpTJvuA2jf+1KiE72nidbrSMmgkO20NW5woKjk96h41rtwY0IDGvqYBS0Kj3p1Kw6ASeg5pE9it0xkS3mMQ605dgIryfoimuqP0My6yye2tzAJDcsiYtju6Y0p/VwjYWDwiaPVjl86oY3k1k828/WHb2O1WujevTvvvPMOHTt2dH+gFVRy40Wqrn0SEZPA2MdeIbXNRZ4Oq944/M8eNvz+CzvXZ/LPjs0UHruwLTx0egOJaekkNW1N0/ZdaJnRh5DwCOcEW59JyfCQzTQ3bnWo+NoGsazSuGcMRIoIIKOkmLiymsf/eAMrUKiP5biIoJggCmUQhdZAzGgIEmYChJkAYSRclBJrPUq4+UidVn72lCKdgUXhDdQYGC8RLfQMKywk1Hz278Mk9LyzKYAnpv2bwqO2bqzJkyfz73//G0/sKKCSGy9QXFzME088wauvvgpAq679uP6BF9TaJy528vgR/tm5hUP7d1F04hgnTxyl6MRRSgpPgBAIoUFoBBqNltCIaBpExxEeFUt4dBwJTZoR37gp2lru2eLvBFZGBq+niXGnQ+U3h0ezTGNy7/oiUhKvCaCd0UzTouNev7pxfZUfGMKioACK8Z1kzB+ECC1DS8qr/QIgkfxd3oh/vfcrK+Z/htVipkGDBjz55JPccssthIa6b202ldx4kJSSOXPmcP/995Obm4tGo+WyCffR/6oJaoyGUu/ohIWrg9aQYNzvUPltYVEs0VqQHuwlChZaGqOnoclEYlkJ4cZSr++28nX2VadXai1qfI2X0iLoZ9bQ8uSxap8v1Ybyxd4I/vP6u2xbYxuL06BBAyZPnszUqVNp0qSJy2NUyY2HbNy4kTvvvJNly5YB0Kh5G0bf+RRNWrb3bGCK4gLxumKG6VbTwHzUofLrGsTwuzB63YqwIUJLAjriLZJ4YxkxZcXVLnam1I1Ro2F5AzW+xidISVsRSK9zDDQGOKJL4OWVhXz56cfs3rQWAI1Gw5VXXsn111/P0KFDCQk59zIHF0IlN262du1ann/+eebOnYuUkpDwCC4bfx/dhlzlF7t7K35GSnoE55JhXuPQWA8pJasj48ii3OsSm+oIIEEYaGqWpJVUPxZBccyRgGB+CgmmwItnbSlnSxQGLiksIOwcr30rkGtI4/MNZcz5ai7ZyxdirVhnKCgoiCFDhjBq1CgGDhxIw4YNnRaXSm7cQErJihUreOGFF1i0yLbZuVanp/tl1zDkprvUIFSlXgrTGhkekO1wN5SUkt+i4tnoq9/apSRBE0C62UqLk8dVi46DzEKQ3SCGNUJN8/ZVegTdLTranmfNKInkuD6eXw9H8r+Fq1i38mf2bsk+rUxqaip9+vShd+/etG/fnlatWhEeHl6nmFRy40L5+fl8/PHHfPjhh2zdapsZYggMpsewa+k3ejwRMfEejlBRnM+AhV7Be2lj3oTe6lhLRolOz6/hEeyvJ7NiAtHQVupoe/L4WavhKqfsC2nAbwE6Crx44UDFcYnCQP+iovPuMA5Qrg3iH20yvx/Q8e2STDZlrmDPlr8pLzl7kHJSUhKtWrWicePGNGzYkMTERBITE4mIiCA4OLjyB8BoNFb+dO3aVSU3zlRQUMAPP/zAnDlz+OGHHyoXdQuLiqXHZdfS58oxhIRHejhKRXE+gZWuQXl0tm4g0FLi8HF7QyJYYhCUUv9aOrQI0jHQqbjQ6/eycqdjhmAyQ0PZVY932vZXGgntRQAdTx4n2IGFMU2aAA7okthrimRlzhFWr9vMni3ryN+7g0P7d2E21fkLj0puLtSePXv46aefmDdvHkuWLMFUsVuvRqOldbf+dB0ymlZd+513+XNF8VUBwkxG4D+0sW4nxOL4onBmIVgVEct6Wf8/4ISENE0AnYuLiS33jTV0nE1KSW5IBNmBAexXSU29p0PQRhroVORYkmNn1ARwTBfHccI5ZA5hY+5JNu4+yNEjhyk4eojCY4c5eewQZaXFmMrKMJaXYSwrsW0Wq9Oj1evR6/Tsy9mokpvaOnjwIL/99hu//vorv/zyCzt3nlqzQ2g0pLXLoF3PQXTsN5TwKPcvXqQo7pCgK6KLYQ9NTLtqtXS/lJId4dH8pRcU+lt3hJQkaQJoYzST6idr6JzUGdgdHM4WHRxVg4X9jhZBCwy0LCsloaSwTkspSCRmTSBlmiDKRDClIhATesxChwktJqlDAFphRUgLep2Glt2H1Zjc+HVzQ3FxMevXrycrK4s///yTP//8kz179pxWJjAkjGYdutGm+wDadB9IaIRafE+pn2J1JbQzHCBV7ifMdARhrN0bVW5wOH8GBnBYGvHLsaNC8I808o8egqOiaCl1tKpnXVZW4FhgMPsCQtilhUPWchAm//x9K1iQbKGcLYEaGgTF0MKioUXpyVq95gUCvbUcvbWcME7UfIA1wKHz+kVyU1JSwo4dO9i2bRvbtm1j06ZN/P333+Tk5HBmy1VAUDCNW3agecfuNO/Uk0bNW6suJ6Ve0gkLaYYTpGkPkyQPnpHQOJbYWIA9oRFsNOj5x1oO9WTQ8IUqkRbWYmFtsIGY0DBSrJBaWkJMWZHPLBQopaRYH8CxgCDy9QYOaiBfmjAigYoE1kfqorhegTSzWgOrgw00CA0lWWpobDSSVFqA3ur+7LfefGoXFhayb98+9u/fz44dO8jJyalMZvbt21ftMRqtjoQmTWnUtDVNWnWgSatOJKY0V2vSKPVSoMZMir6ARtrjxHOEKNNBdBYLp1bAd/yD6qTOwJbQBmwRFtsS+tL7FuXzCkJwRBo5IiArWEdISDQN0RNvtpBgLCW6rNjj3VcWoNAQRIE+kBM6HQUawTEBx6SJ8sqB4H7aGqfUnhAUSBMFwEYDCEM4UUJPnNQSZzETaywjwliKoZpNOp3J65Mbk8nE4cOHyc/Pr/zJzc1l//79lcnMvn37KCwsPOc5NFodMYnJxDZKIbZRKvGNm5LUtBUJTZqjMzi+666i+IpwTTlJ+pPEa08SzQkirccIMZ9AY4G6bOcjpeRYYAi7g0LYo7F3R6hWmtoqlha2Y2G7FgjSoQ2KIFLoiEBDpFUSYTETajYTbDYRbDZe8Ho6VqBcq6NYb6BEa6BYq6VIaDipERQKyUksFFnt22BYgYrfqUpkFCeR2MZjHcXElorXPYGhhAgdDYSWCCkIkRBitRBisRBiMRJgNhNgNaO3WOrc0umVyU1OTg5t2rQhPz+fo0cdW9JdHxBIRGwCkbENiUxIIq5RKnGNUolNTiU6oZHaBFGpX6QkVGsiWldKpKaUaE0JDSgkXJ4kxFKA3lqGsIg6JTK200sKA4LICwjhgE5LnrBUDBBW3RHOZEFyRJo4AraGMx2g0wABIA0YhJZAoUGPwIBAh0DHqTY2ge3XYcGWmpgBE1aMSMqkFaO0VPldyYoSVe5CbRrsFMU5hKAYC8XSQh7YXoPaih/0FT+2mYgGoUGHQCNAgyBQ68Njbk6ePMnmzZsB2wylkPBIwiKjCYuIITQymgYx8UTGNSQiNoGI2EQi4xIJDovwmb5sRTkfgZUIrYkwbTnhmnJCRRlhmjJCZSnBlBJkLSbQUmSbxWSF6peQcfxvwYqtW+KIIZAjOj1HNYLDmCiRFmwfhmb1Td4ThMCIFeOFtN6o90TFh0kB5Vht65pXvAeVSsc2nvbK5CYmqQnjnniDsMgYQsIj1RgYxSdpsRKsNRMozARrTAQJM4HCRKAwESyMBAojAdJIIOUYZDkBsgyDtRydtQyBOE/iUntGjYaT+kCKdAZOanUUajQUaAQnsFBgNWGt7JYoV4mMoig+zyuTm8DgUBqmtfR0GEp9JyUGYUWnsRAgrOiEFYOwoBdW9MKCHtttg7Cgw4JBmNFjQYcZPVVuSxM6zOikqfJHK01opNmWpEAtk5Sav22bhAajTkeZRke5RkuZRkupVkupRkOZEJQIKEFSjKRUmm3f/oW9E6NiPRLVLaEoSj3lUHIjhBgCvI6tR+x9KeULZzwvKp6/DCgBxkkp1zpyrOKDpEQIiVZINBI0GokGKxpAW/G4kBKNkGix2u4LW0uGhornkWiRaIUVLbb7GmFFh/05KxqsaEXFeSvun3qs4prSWnEO220Nlop/rWixVJQxn/ackBY00oIGy6nko7JuOKXlwgqYNVosCCwaDWahxSI0WDQCs9BgFrZ/LRqNbZyE0GAWYBICsxCYEBiRmASYkJQjMSExSivl0lrR0nJm4NWMp7BT3ROKoviRGpMbIYQWmAkMAnKB1UKI76SUm6sUGwo0r/jpBrwDdHPw2LMEaiw0DziGqHiHtvewiYoPPltc9seoKGN/N5dVBtvZy0pExdOaihuiyvNnnbvyvLbHhJAIRMXzsvL508rYY5KySjmBELLyMVEZy6k6CKrcx5YE2O6fXV5jP5cAIa1V4rWVOf18VWK3369y7Km4Kx7n1DFIiUSiwfbvqU/KU+Wo+oioiERU/K8KkFLYjhYVNRdVj64oU/GfLeWp+1JoKs9rFadyDft5JGAVwhajsC3zb5JUxmAVp9Wk4r7edhuBFSqudeq27XFZ2QtkP85SUXsLtlU07YM2bT/2+xKLlFiFbXCoRUrbcVI6kFDYzw7nHPlbXaKl8hRFUZTzcqTlpiuwQ0q5C0AI8QUwAqiaoIwAPpa2FfFWCSEihBCJQIoDx54dlM5EXFweVd/FJad/WMgz3vWlPK346c+e4zl5RpEz71fnXMfWdPvUY6fqISuCtj92aj3BKsnCWWWq3K9MFs74v6h6rdPKiMpnpf364vznUs7NPrhfzcNTFEVxD73GsXdcR5KbJGB/lfu52FpnaiqT5OCxAAghbgFuqbhb1K3V6G0OxOYKMWCbmelH/K3Oqr71n7/VWdW3/vO3Op+vvk1qOtiR5Ka6RvCzevTPUcaRY20PSvku8K4D8biUECKrpg256ht/q7Oqb/3nb3VW9a3//K3OF1pfR5KbXCC5yv1GYFt3x4EyBgeOVRRFURRFcRpHVsNZDTQXQqQKIQzAdcB3Z5T5DrhJ2HQHCqSUBxw8VlEURVEUxWlqbLmRUpqFEFOBn7CNn/xQSrlJCDGl4vlZwI/YpoHvwDYVfPz5jnVJTZzH411jHuBvdVb1rf/8rc6qvvWfv9X5guorpFSzYxRFURRFqT8c26RBURRFURTFR6jkRlEURVGUesWvkhshRLIQYqkQYosQYpMQ4u6Kx78UQmRX/OwRQmSfcVxjIUSREOJ+jwR+AWpbZyFEihCitMpzszxagVqqy+9YCNFeCPFnRfkNQohAj1WgDurwO76xyuPZQgirEKKjJ+tQG3Wor14I8X8Vv9stQohHPFqBWqpDfQ1CiI8q6rtOCNHfg+HXyXnq3FEIsaqizllCiK5VjnlECLFDCLFNCDHYc9HXXm3rK4SIrihfJIR4y7PR114d6jtICLGm4jW9RggxsMaLSCn95gdIBDpX3A4DcoDWZ5R5GXjyjMfmAl8B93u6Dq6uM7ZVpTd6Om431lcHrAc6VNyPBrSerocr63zG4+2AXZ6ug4t/xzcAX1TcDgb2ACmerocL63sH8FHF7ThgDaDxdD2cUWdgMTC04vHLgGUVt1sD64AAIBXY6Ut/x3WobwjQG5gCvOXp+N1Q305Aw4rbbYF/arqGV+4K7irSNj39QMXtk0KILdhWUd4MlRuAXgNUZoVCiCuBXUCxu+N1hrrU2ZfVob6XAuullOsqjjnq9qAv0AX+jq8HPndTqE5Rh/pKIEQIoQOCACNQ6O6466oO9W0N/FpR/pAQ4gSQAWS6N/K6O0+dJRBeUawBp9ZNG4EtgS0HdgshdmDbOuhPtwZeR7Wtr5SyGFgphGjmgXAvWB3q+3eVwzcBgUKIgIrfd7X8KrmpSgiRgi0b/KvKw32AfCnl9ooyIcBD2Db+9LkuqTM5UucKqUKIv7F9ADwupfzNfVE6j4P1bQFIIcRPQCy2N8gX3RqoE9Xid2x3LbYPBp/kYH2/xlbHA9habu6VUh5zZ5zO4mB91wEjhG0vv2Tgoop/fSa5qeqMOt8D/CSEmIFtWEXPimJJwKoqh9m3API5Dta33qhDfUcDf58vsQE/G3NjJ4QIxdbVdI+Usuo3uDO/xT4NvCqlLHJnfK5QizofABpLKTsB9wGfCSHC8TG1qK8OW/PujRX/jhRCXOy2QJ2oFnW2l+8GlEgpN7opRKeqRX27Ytt2vSG2Lot/CSHS3Baok9Sivh9i+3DPAl4D/gDMbgrTqaqp823YktNk4F7gA3vRag73uXVOalHfeqG29RVCtAH+A9xa48k93ffmgb4+PbZFBe8743EdkA80qvLYb9j65/cAJ4BjwFRP18GVda7m2GVAhqfr4MLf8XXA7Cr3nwAe8HQd3PE7Bl4FHvV07G74Hc8Exla5/yFwjafr4Orfb5Uyf3DGGB1f+KmuzkABp9ZnE0Bhxe1HgEeqlPsJ6OHpOriqvlWeH4cPjrmpS32xbd+UA/Ry5Px+1XJT0Tf9AbBFSvnKGU9fAmyVUubaH5BS9pFSpkgpU7B9A3pOSulTI9NrW2chRKwQQltxOw1ojm3MkU+obX2x/XG1F0IEV4zJ6EfFWAZfUYc6I4TQAFcDX7gnSuepQ333AQOFTQjQHdjqnmgvXB3+hoMr6okQYhBgllLWl9d0Hra/UbCNMbJ3xX0HXCeECBBCpGJ73/KZbrg61Nen1ba+QogI4AdsCezvDl3E09mbmzPF3tiaKtcD2RU/l1U8NxuYcp5jn8I3Z0vVqs7Y+jM3Yeu3Xwtc7uk6uPp3DIypqPNG4EVP18FNde4PrPJ07O6oLxCKbbbjJmyJq0+1zNWhvinANmAL8AvQxNN1cFadKx5fU/H+9BdwUZVjHsM2S2obFTNufOWnjvXdg603oQhbN6TPtM7Vtr7A49gm9WRX+Yk73zXU9guKoiiKotQrftUtpSiKoihK/aeSG0VRFEVR6hWV3CiKoiiKUq+o5EZRFEVRlHpFJTeKoiiKotQrKrlRFEVRFKVeUcmNoiiKoij1yv8DtYzfGqjrocQAAAAASUVORK5CYII=\n"},"metadata":{"needs_background":"light"}}]},{"cell_type":"markdown","source":"## Resolving contributions to the spectrum\n- Extract information for each solution vector (one per cartesian component)\n- Sum contributions from each occupied orbital, normalized by all contributions\n- Scale with corresponding cartesian component and sum up\n\n### For vinylfluoride\n- Two strong $1s \\rightarrow \\pi^{\\ast}$ transitions from each carbon 1s\n- Bond to electronegative fluoride decrease electron density around carbon, leading to higher transition energy for that carbon\n    - Results in chemical shift of about 2 eV between -CH$_2$ (MO #3 )and -CHF (MO #2)","metadata":{}},{"cell_type":"code","source":"spec_comp = []\nfor occ in np.arange(0,nocc): spec_comp.append([])\nfor i in np.arange(len(freqs)):\n    x_tmp = x_solution[i]; y_tmp = y_solution[i]; z_tmp = z_solution[i]\n    for occ in np.arange(0,nocc):\n        comp_X = np.sum(np.abs(np.imag(x_tmp[occ*nvirt : (occ+1)*nvirt]))) / np.sum(np.abs(np.imag(x_tmp[:])))\n        comp_Y = np.sum(np.abs(np.imag(y_tmp[occ*nvirt : (occ+1)*nvirt]))) / np.sum(np.abs(np.imag(y_tmp[:])))\n        comp_Z = np.sum(np.abs(np.imag(z_tmp[occ*nvirt : (occ+1)*nvirt]))) / np.sum(np.abs(np.imag(z_tmp[:])))\n        spec_comp[occ].append((comp_X*sxx[i]+comp_Y*syy[i]+comp_Z*szz[i])/3.)\nplt.figure(figsize=(8,3))\nmo2 = np.array(spec_comp[1]); mo3 = np.array(spec_comp[2])\nplt.plot(eV*freqs,sigma,linewidth=2,color='k')\nplt.fill_between(eV*freqs,sigma,sigma-mo3,alpha=0.5)\nplt.fill_between(eV*freqs,sigma-mo3,sigma-mo2-mo3,alpha=0.5)\nplt.fill_between(eV*freqs,sigma-mo2-mo3,alpha=0.5)\nplt.legend(('Total','MO #3','MO #2','Rest'))\nplt.xlim((eV*min(freqs),eV*max(freqs))); plt.ylim((0,1.05*max(sigma))); plt.tight_layout()","metadata":{},"execution_count":109,"outputs":[{"output_type":"display_data","data":{"application/javascript":"/* Put everything inside the global mpl namespace */\n/* global mpl */\nwindow.mpl = {};\n\nmpl.get_websocket_type = function () {\n    if (typeof WebSocket !== 'undefined') {\n        return WebSocket;\n    } else if (typeof MozWebSocket !== 'undefined') {\n        return MozWebSocket;\n    } else {\n        alert(\n            'Your browser does not have WebSocket support. ' +\n                'Please try Chrome, Safari or Firefox ≥ 6. ' +\n                'Firefox 4 and 5 are also supported but you ' +\n                'have to enable WebSockets in about:config.'\n        );\n    }\n};\n\nmpl.figure = function (figure_id, websocket, ondownload, parent_element) {\n    this.id = figure_id;\n\n    this.ws = websocket;\n\n    this.supports_binary = this.ws.binaryType !== undefined;\n\n    if (!this.supports_binary) {\n        var warnings = document.getElementById('mpl-warnings');\n        if (warnings) {\n            warnings.style.display = 'block';\n            warnings.textContent =\n                'This browser does not support binary websocket messages. ' +\n                'Performance may be slow.';\n        }\n    }\n\n    this.imageObj = new Image();\n\n    this.context = undefined;\n    this.message = undefined;\n    this.canvas = undefined;\n    this.rubberband_canvas = undefined;\n    this.rubberband_context = undefined;\n    this.format_dropdown = undefined;\n\n    this.image_mode = 'full';\n\n    this.root = document.createElement('div');\n    this.root.setAttribute('style', 'display: inline-block');\n    this._root_extra_style(this.root);\n\n    parent_element.appendChild(this.root);\n\n    this._init_header(this);\n    this._init_canvas(this);\n    this._init_toolbar(this);\n\n    var fig = this;\n\n    this.waiting = false;\n\n    this.ws.onopen = function () {\n        fig.send_message('supports_binary', { value: fig.supports_binary });\n        fig.send_message('send_image_mode', {});\n        if (fig.ratio !== 1) {\n            fig.send_message('set_dpi_ratio', { dpi_ratio: fig.ratio });\n        }\n        fig.send_message('refresh', {});\n    };\n\n    this.imageObj.onload = function () {\n        if (fig.image_mode === 'full') {\n            // Full images could contain transparency (where diff images\n            // almost always do), so we need to clear the canvas so that\n            // there is no ghosting.\n            fig.context.clearRect(0, 0, fig.canvas.width, fig.canvas.height);\n        }\n        fig.context.drawImage(fig.imageObj, 0, 0);\n    };\n\n    this.imageObj.onunload = function () {\n        fig.ws.close();\n    };\n\n    this.ws.onmessage = this._make_on_message_function(this);\n\n    this.ondownload = ondownload;\n};\n\nmpl.figure.prototype._init_header = function () {\n    var titlebar = document.createElement('div');\n    titlebar.classList =\n        'ui-dialog-titlebar ui-widget-header ui-corner-all ui-helper-clearfix';\n    var titletext = document.createElement('div');\n    titletext.classList = 'ui-dialog-title';\n    titletext.setAttribute(\n        'style',\n        'width: 100%; text-align: center; padding: 3px;'\n    );\n    titlebar.appendChild(titletext);\n    this.root.appendChild(titlebar);\n    this.header = titletext;\n};\n\nmpl.figure.prototype._canvas_extra_style = function (_canvas_div) {};\n\nmpl.figure.prototype._root_extra_style = function (_canvas_div) {};\n\nmpl.figure.prototype._init_canvas = function () {\n    var fig = this;\n\n    var canvas_div = (this.canvas_div = document.createElement('div'));\n    canvas_div.setAttribute(\n        'style',\n        'border: 1px solid #ddd;' +\n            'box-sizing: content-box;' +\n            'clear: both;' +\n            'min-height: 1px;' +\n            'min-width: 1px;' +\n            'outline: 0;' +\n            'overflow: hidden;' +\n            'position: relative;' +\n            'resize: both;'\n    );\n\n    function on_keyboard_event_closure(name) {\n        return function (event) {\n            return fig.key_event(event, name);\n        };\n    }\n\n    canvas_div.addEventListener(\n        'keydown',\n        on_keyboard_event_closure('key_press')\n    );\n    canvas_div.addEventListener(\n        'keyup',\n        on_keyboard_event_closure('key_release')\n    );\n\n    this._canvas_extra_style(canvas_div);\n    this.root.appendChild(canvas_div);\n\n    var canvas = (this.canvas = document.createElement('canvas'));\n    canvas.classList.add('mpl-canvas');\n    canvas.setAttribute('style', 'box-sizing: content-box;');\n\n    this.context = canvas.getContext('2d');\n\n    var backingStore =\n        this.context.backingStorePixelRatio ||\n        this.context.webkitBackingStorePixelRatio ||\n        this.context.mozBackingStorePixelRatio ||\n        this.context.msBackingStorePixelRatio ||\n        this.context.oBackingStorePixelRatio ||\n        this.context.backingStorePixelRatio ||\n        1;\n\n    this.ratio = (window.devicePixelRatio || 1) / backingStore;\n\n    var rubberband_canvas = (this.rubberband_canvas = document.createElement(\n        'canvas'\n    ));\n    rubberband_canvas.setAttribute(\n        'style',\n        'box-sizing: content-box; position: absolute; left: 0; top: 0; z-index: 1;'\n    );\n\n    // Apply a ponyfill if ResizeObserver is not implemented by browser.\n    if (this.ResizeObserver === undefined) {\n        if (window.ResizeObserver !== undefined) {\n            this.ResizeObserver = window.ResizeObserver;\n        } else {\n            var obs = _JSXTOOLS_RESIZE_OBSERVER({});\n            this.ResizeObserver = obs.ResizeObserver;\n        }\n    }\n\n    this.resizeObserverInstance = new this.ResizeObserver(function (entries) {\n        var nentries = entries.length;\n        for (var i = 0; i < nentries; i++) {\n            var entry = entries[i];\n            var width, height;\n            if (entry.contentBoxSize) {\n                if (entry.contentBoxSize instanceof Array) {\n                    // Chrome 84 implements new version of spec.\n                    width = entry.contentBoxSize[0].inlineSize;\n                    height = entry.contentBoxSize[0].blockSize;\n                } else {\n                    // Firefox implements old version of spec.\n                    width = entry.contentBoxSize.inlineSize;\n                    height = entry.contentBoxSize.blockSize;\n                }\n            } else {\n                // Chrome <84 implements even older version of spec.\n                width = entry.contentRect.width;\n                height = entry.contentRect.height;\n            }\n\n            // Keep the size of the canvas and rubber band canvas in sync with\n            // the canvas container.\n            if (entry.devicePixelContentBoxSize) {\n                // Chrome 84 implements new version of spec.\n                canvas.setAttribute(\n                    'width',\n                    entry.devicePixelContentBoxSize[0].inlineSize\n                );\n                canvas.setAttribute(\n                    'height',\n                    entry.devicePixelContentBoxSize[0].blockSize\n                );\n            } else {\n                canvas.setAttribute('width', width * fig.ratio);\n                canvas.setAttribute('height', height * fig.ratio);\n            }\n            canvas.setAttribute(\n                'style',\n                'width: ' + width + 'px; height: ' + height + 'px;'\n            );\n\n            rubberband_canvas.setAttribute('width', width);\n            rubberband_canvas.setAttribute('height', height);\n\n            // And update the size in Python. We ignore the initial 0/0 size\n            // that occurs as the element is placed into the DOM, which should\n            // otherwise not happen due to the minimum size styling.\n            if (fig.ws.readyState == 1 && width != 0 && height != 0) {\n                fig.request_resize(width, height);\n            }\n        }\n    });\n    this.resizeObserverInstance.observe(canvas_div);\n\n    function on_mouse_event_closure(name) {\n        return function (event) {\n            return fig.mouse_event(event, name);\n        };\n    }\n\n    rubberband_canvas.addEventListener(\n        'mousedown',\n        on_mouse_event_closure('button_press')\n    );\n    rubberband_canvas.addEventListener(\n        'mouseup',\n        on_mouse_event_closure('button_release')\n    );\n    // Throttle sequential mouse events to 1 every 20ms.\n    rubberband_canvas.addEventListener(\n        'mousemove',\n        on_mouse_event_closure('motion_notify')\n    );\n\n    rubberband_canvas.addEventListener(\n        'mouseenter',\n        on_mouse_event_closure('figure_enter')\n    );\n    rubberband_canvas.addEventListener(\n        'mouseleave',\n        on_mouse_event_closure('figure_leave')\n    );\n\n    canvas_div.addEventListener('wheel', function (event) {\n        if (event.deltaY < 0) {\n            event.step = 1;\n        } else {\n            event.step = -1;\n        }\n        on_mouse_event_closure('scroll')(event);\n    });\n\n    canvas_div.appendChild(canvas);\n    canvas_div.appendChild(rubberband_canvas);\n\n    this.rubberband_context = rubberband_canvas.getContext('2d');\n    this.rubberband_context.strokeStyle = '#000000';\n\n    this._resize_canvas = function (width, height, forward) {\n        if (forward) {\n            canvas_div.style.width = width + 'px';\n            canvas_div.style.height = height + 'px';\n        }\n    };\n\n    // Disable right mouse context menu.\n    this.rubberband_canvas.addEventListener('contextmenu', function (_e) {\n        event.preventDefault();\n        return false;\n    });\n\n    function set_focus() {\n        canvas.focus();\n        canvas_div.focus();\n    }\n\n    window.setTimeout(set_focus, 100);\n};\n\nmpl.figure.prototype._init_toolbar = function () {\n    var fig = this;\n\n    var toolbar = document.createElement('div');\n    toolbar.classList = 'mpl-toolbar';\n    this.root.appendChild(toolbar);\n\n    function on_click_closure(name) {\n        return function (_event) {\n            return fig.toolbar_button_onclick(name);\n        };\n    }\n\n    function on_mouseover_closure(tooltip) {\n        return function (event) {\n            if (!event.currentTarget.disabled) {\n                return fig.toolbar_button_onmouseover(tooltip);\n            }\n        };\n    }\n\n    fig.buttons = {};\n    var buttonGroup = document.createElement('div');\n    buttonGroup.classList = 'mpl-button-group';\n    for (var toolbar_ind in mpl.toolbar_items) {\n        var name = mpl.toolbar_items[toolbar_ind][0];\n        var tooltip = mpl.toolbar_items[toolbar_ind][1];\n        var image = mpl.toolbar_items[toolbar_ind][2];\n        var method_name = mpl.toolbar_items[toolbar_ind][3];\n\n        if (!name) {\n            /* Instead of a spacer, we start a new button group. */\n            if (buttonGroup.hasChildNodes()) {\n                toolbar.appendChild(buttonGroup);\n            }\n            buttonGroup = document.createElement('div');\n            buttonGroup.classList = 'mpl-button-group';\n            continue;\n        }\n\n        var button = (fig.buttons[name] = document.createElement('button'));\n        button.classList = 'mpl-widget';\n        button.setAttribute('role', 'button');\n        button.setAttribute('aria-disabled', 'false');\n        button.addEventListener('click', on_click_closure(method_name));\n        button.addEventListener('mouseover', on_mouseover_closure(tooltip));\n\n        var icon_img = document.createElement('img');\n        icon_img.src = '_images/' + image + '.png';\n        icon_img.srcset = '_images/' + image + '_large.png 2x';\n        icon_img.alt = tooltip;\n        button.appendChild(icon_img);\n\n        buttonGroup.appendChild(button);\n    }\n\n    if (buttonGroup.hasChildNodes()) {\n        toolbar.appendChild(buttonGroup);\n    }\n\n    var fmt_picker = document.createElement('select');\n    fmt_picker.classList = 'mpl-widget';\n    toolbar.appendChild(fmt_picker);\n    this.format_dropdown = fmt_picker;\n\n    for (var ind in mpl.extensions) {\n        var fmt = mpl.extensions[ind];\n        var option = document.createElement('option');\n        option.selected = fmt === mpl.default_extension;\n        option.innerHTML = fmt;\n        fmt_picker.appendChild(option);\n    }\n\n    var status_bar = document.createElement('span');\n    status_bar.classList = 'mpl-message';\n    toolbar.appendChild(status_bar);\n    this.message = status_bar;\n};\n\nmpl.figure.prototype.request_resize = function (x_pixels, y_pixels) {\n    // Request matplotlib to resize the figure. Matplotlib will then trigger a resize in the client,\n    // which will in turn request a refresh of the image.\n    this.send_message('resize', { width: x_pixels, height: y_pixels });\n};\n\nmpl.figure.prototype.send_message = function (type, properties) {\n    properties['type'] = type;\n    properties['figure_id'] = this.id;\n    this.ws.send(JSON.stringify(properties));\n};\n\nmpl.figure.prototype.send_draw_message = function () {\n    if (!this.waiting) {\n        this.waiting = true;\n        this.ws.send(JSON.stringify({ type: 'draw', figure_id: this.id }));\n    }\n};\n\nmpl.figure.prototype.handle_save = function (fig, _msg) {\n    var format_dropdown = fig.format_dropdown;\n    var format = format_dropdown.options[format_dropdown.selectedIndex].value;\n    fig.ondownload(fig, format);\n};\n\nmpl.figure.prototype.handle_resize = function (fig, msg) {\n    var size = msg['size'];\n    if (size[0] !== fig.canvas.width || size[1] !== fig.canvas.height) {\n        fig._resize_canvas(size[0], size[1], msg['forward']);\n        fig.send_message('refresh', {});\n    }\n};\n\nmpl.figure.prototype.handle_rubberband = function (fig, msg) {\n    var x0 = msg['x0'] / fig.ratio;\n    var y0 = (fig.canvas.height - msg['y0']) / fig.ratio;\n    var x1 = msg['x1'] / fig.ratio;\n    var y1 = (fig.canvas.height - msg['y1']) / fig.ratio;\n    x0 = Math.floor(x0) + 0.5;\n    y0 = Math.floor(y0) + 0.5;\n    x1 = Math.floor(x1) + 0.5;\n    y1 = Math.floor(y1) + 0.5;\n    var min_x = Math.min(x0, x1);\n    var min_y = Math.min(y0, y1);\n    var width = Math.abs(x1 - x0);\n    var height = Math.abs(y1 - y0);\n\n    fig.rubberband_context.clearRect(\n        0,\n        0,\n        fig.canvas.width / fig.ratio,\n        fig.canvas.height / fig.ratio\n    );\n\n    fig.rubberband_context.strokeRect(min_x, min_y, width, height);\n};\n\nmpl.figure.prototype.handle_figure_label = function (fig, msg) {\n    // Updates the figure title.\n    fig.header.textContent = msg['label'];\n};\n\nmpl.figure.prototype.handle_cursor = function (fig, msg) {\n    var cursor = msg['cursor'];\n    switch (cursor) {\n        case 0:\n            cursor = 'pointer';\n            break;\n        case 1:\n            cursor = 'default';\n            break;\n        case 2:\n            cursor = 'crosshair';\n            break;\n        case 3:\n            cursor = 'move';\n            break;\n    }\n    fig.rubberband_canvas.style.cursor = cursor;\n};\n\nmpl.figure.prototype.handle_message = function (fig, msg) {\n    fig.message.textContent = msg['message'];\n};\n\nmpl.figure.prototype.handle_draw = function (fig, _msg) {\n    // Request the server to send over a new figure.\n    fig.send_draw_message();\n};\n\nmpl.figure.prototype.handle_image_mode = function (fig, msg) {\n    fig.image_mode = msg['mode'];\n};\n\nmpl.figure.prototype.handle_history_buttons = function (fig, msg) {\n    for (var key in msg) {\n        if (!(key in fig.buttons)) {\n            continue;\n        }\n        fig.buttons[key].disabled = !msg[key];\n        fig.buttons[key].setAttribute('aria-disabled', !msg[key]);\n    }\n};\n\nmpl.figure.prototype.handle_navigate_mode = function (fig, msg) {\n    if (msg['mode'] === 'PAN') {\n        fig.buttons['Pan'].classList.add('active');\n        fig.buttons['Zoom'].classList.remove('active');\n    } else if (msg['mode'] === 'ZOOM') {\n        fig.buttons['Pan'].classList.remove('active');\n        fig.buttons['Zoom'].classList.add('active');\n    } else {\n        fig.buttons['Pan'].classList.remove('active');\n        fig.buttons['Zoom'].classList.remove('active');\n    }\n};\n\nmpl.figure.prototype.updated_canvas_event = function () {\n    // Called whenever the canvas gets updated.\n    this.send_message('ack', {});\n};\n\n// A function to construct a web socket function for onmessage handling.\n// Called in the figure constructor.\nmpl.figure.prototype._make_on_message_function = function (fig) {\n    return function socket_on_message(evt) {\n        if (evt.data instanceof Blob) {\n            /* FIXME: We get \"Resource interpreted as Image but\n             * transferred with MIME type text/plain:\" errors on\n             * Chrome.  But how to set the MIME type?  It doesn't seem\n             * to be part of the websocket stream */\n            evt.data.type = 'image/png';\n\n            /* Free the memory for the previous frames */\n            if (fig.imageObj.src) {\n                (window.URL || window.webkitURL).revokeObjectURL(\n                    fig.imageObj.src\n                );\n            }\n\n            fig.imageObj.src = (window.URL || window.webkitURL).createObjectURL(\n                evt.data\n            );\n            fig.updated_canvas_event();\n            fig.waiting = false;\n            return;\n        } else if (\n            typeof evt.data === 'string' &&\n            evt.data.slice(0, 21) === 'data:image/png;base64'\n        ) {\n            fig.imageObj.src = evt.data;\n            fig.updated_canvas_event();\n            fig.waiting = false;\n            return;\n        }\n\n        var msg = JSON.parse(evt.data);\n        var msg_type = msg['type'];\n\n        // Call the  \"handle_{type}\" callback, which takes\n        // the figure and JSON message as its only arguments.\n        try {\n            var callback = fig['handle_' + msg_type];\n        } catch (e) {\n            console.log(\n                \"No handler for the '\" + msg_type + \"' message type: \",\n                msg\n            );\n            return;\n        }\n\n        if (callback) {\n            try {\n                // console.log(\"Handling '\" + msg_type + \"' message: \", msg);\n                callback(fig, msg);\n            } catch (e) {\n                console.log(\n                    \"Exception inside the 'handler_\" + msg_type + \"' callback:\",\n                    e,\n                    e.stack,\n                    msg\n                );\n            }\n        }\n    };\n};\n\n// from http://stackoverflow.com/questions/1114465/getting-mouse-location-in-canvas\nmpl.findpos = function (e) {\n    //this section is from http://www.quirksmode.org/js/events_properties.html\n    var targ;\n    if (!e) {\n        e = window.event;\n    }\n    if (e.target) {\n        targ = e.target;\n    } else if (e.srcElement) {\n        targ = e.srcElement;\n    }\n    if (targ.nodeType === 3) {\n        // defeat Safari bug\n        targ = targ.parentNode;\n    }\n\n    // pageX,Y are the mouse positions relative to the document\n    var boundingRect = targ.getBoundingClientRect();\n    var x = e.pageX - (boundingRect.left + document.body.scrollLeft);\n    var y = e.pageY - (boundingRect.top + document.body.scrollTop);\n\n    return { x: x, y: y };\n};\n\n/*\n * return a copy of an object with only non-object keys\n * we need this to avoid circular references\n * http://stackoverflow.com/a/24161582/3208463\n */\nfunction simpleKeys(original) {\n    return Object.keys(original).reduce(function (obj, key) {\n        if (typeof original[key] !== 'object') {\n            obj[key] = original[key];\n        }\n        return obj;\n    }, {});\n}\n\nmpl.figure.prototype.mouse_event = function (event, name) {\n    var canvas_pos = mpl.findpos(event);\n\n    if (name === 'button_press') {\n        this.canvas.focus();\n        this.canvas_div.focus();\n    }\n\n    var x = canvas_pos.x * this.ratio;\n    var y = canvas_pos.y * this.ratio;\n\n    this.send_message(name, {\n        x: x,\n        y: y,\n        button: event.button,\n        step: event.step,\n        guiEvent: simpleKeys(event),\n    });\n\n    /* This prevents the web browser from automatically changing to\n     * the text insertion cursor when the button is pressed.  We want\n     * to control all of the cursor setting manually through the\n     * 'cursor' event from matplotlib */\n    event.preventDefault();\n    return false;\n};\n\nmpl.figure.prototype._key_event_extra = function (_event, _name) {\n    // Handle any extra behaviour associated with a key event\n};\n\nmpl.figure.prototype.key_event = function (event, name) {\n    // Prevent repeat events\n    if (name === 'key_press') {\n        if (event.which === this._key) {\n            return;\n        } else {\n            this._key = event.which;\n        }\n    }\n    if (name === 'key_release') {\n        this._key = null;\n    }\n\n    var value = '';\n    if (event.ctrlKey && event.which !== 17) {\n        value += 'ctrl+';\n    }\n    if (event.altKey && event.which !== 18) {\n        value += 'alt+';\n    }\n    if (event.shiftKey && event.which !== 16) {\n        value += 'shift+';\n    }\n\n    value += 'k';\n    value += event.which.toString();\n\n    this._key_event_extra(event, name);\n\n    this.send_message(name, { key: value, guiEvent: simpleKeys(event) });\n    return false;\n};\n\nmpl.figure.prototype.toolbar_button_onclick = function (name) {\n    if (name === 'download') {\n        this.handle_save(this, null);\n    } else {\n        this.send_message('toolbar_button', { name: name });\n    }\n};\n\nmpl.figure.prototype.toolbar_button_onmouseover = function (tooltip) {\n    this.message.textContent = tooltip;\n};\n\n///////////////// REMAINING CONTENT GENERATED BY embed_js.py /////////////////\n// prettier-ignore\nvar _JSXTOOLS_RESIZE_OBSERVER=function(A){var t,i=new WeakMap,n=new WeakMap,a=new WeakMap,r=new WeakMap,o=new Set;function s(e){if(!(this instanceof s))throw new TypeError(\"Constructor requires 'new' operator\");i.set(this,e)}function h(){throw new TypeError(\"Function is not a constructor\")}function c(e,t,i,n){e=0 in arguments?Number(arguments[0]):0,t=1 in arguments?Number(arguments[1]):0,i=2 in arguments?Number(arguments[2]):0,n=3 in arguments?Number(arguments[3]):0,this.right=(this.x=this.left=e)+(this.width=i),this.bottom=(this.y=this.top=t)+(this.height=n),Object.freeze(this)}function d(){t=requestAnimationFrame(d);var s=new WeakMap,p=new Set;o.forEach((function(t){r.get(t).forEach((function(i){var r=t instanceof window.SVGElement,o=a.get(t),d=r?0:parseFloat(o.paddingTop),f=r?0:parseFloat(o.paddingRight),l=r?0:parseFloat(o.paddingBottom),u=r?0:parseFloat(o.paddingLeft),g=r?0:parseFloat(o.borderTopWidth),m=r?0:parseFloat(o.borderRightWidth),w=r?0:parseFloat(o.borderBottomWidth),b=u+f,F=d+l,v=(r?0:parseFloat(o.borderLeftWidth))+m,W=g+w,y=r?0:t.offsetHeight-W-t.clientHeight,E=r?0:t.offsetWidth-v-t.clientWidth,R=b+v,z=F+W,M=r?t.width:parseFloat(o.width)-R-E,O=r?t.height:parseFloat(o.height)-z-y;if(n.has(t)){var k=n.get(t);if(k[0]===M&&k[1]===O)return}n.set(t,[M,O]);var S=Object.create(h.prototype);S.target=t,S.contentRect=new c(u,d,M,O),s.has(i)||(s.set(i,[]),p.add(i)),s.get(i).push(S)}))})),p.forEach((function(e){i.get(e).call(e,s.get(e),e)}))}return s.prototype.observe=function(i){if(i instanceof window.Element){r.has(i)||(r.set(i,new Set),o.add(i),a.set(i,window.getComputedStyle(i)));var n=r.get(i);n.has(this)||n.add(this),cancelAnimationFrame(t),t=requestAnimationFrame(d)}},s.prototype.unobserve=function(i){if(i instanceof window.Element&&r.has(i)){var n=r.get(i);n.has(this)&&(n.delete(this),n.size||(r.delete(i),o.delete(i))),n.size||r.delete(i),o.size||cancelAnimationFrame(t)}},A.DOMRectReadOnly=c,A.ResizeObserver=s,A.ResizeObserverEntry=h,A}; // eslint-disable-line\nmpl.toolbar_items = [[\"Home\", \"Reset original view\", \"fa fa-home icon-home\", \"home\"], [\"Back\", \"Back to previous view\", \"fa fa-arrow-left icon-arrow-left\", \"back\"], [\"Forward\", \"Forward to next view\", \"fa fa-arrow-right icon-arrow-right\", \"forward\"], [\"\", \"\", \"\", \"\"], [\"Pan\", \"Left button pans, Right button zooms\\nx/y fixes axis, CTRL fixes aspect\", \"fa fa-arrows icon-move\", \"pan\"], [\"Zoom\", \"Zoom to rectangle\\nx/y fixes axis, CTRL fixes aspect\", \"fa fa-square-o icon-check-empty\", \"zoom\"], [\"\", \"\", \"\", \"\"], [\"Download\", \"Download plot\", \"fa fa-floppy-o icon-save\", \"download\"]];\n\nmpl.extensions = [\"eps\", \"jpeg\", \"pdf\", \"png\", \"ps\", \"raw\", \"svg\", \"tif\"];\n\nmpl.default_extension = \"png\";/* global mpl */\n\nvar comm_websocket_adapter = function (comm) {\n    // Create a \"websocket\"-like object which calls the given IPython comm\n    // object with the appropriate methods. Currently this is a non binary\n    // socket, so there is still some room for performance tuning.\n    var ws = {};\n\n    ws.close = function () {\n        comm.close();\n    };\n    ws.send = function (m) {\n        //console.log('sending', m);\n        comm.send(m);\n    };\n    // Register the callback with on_msg.\n    comm.on_msg(function (msg) {\n        //console.log('receiving', msg['content']['data'], msg);\n        // Pass the mpl event to the overridden (by mpl) onmessage function.\n        ws.onmessage(msg['content']['data']);\n    });\n    return ws;\n};\n\nmpl.mpl_figure_comm = function (comm, msg) {\n    // This is the function which gets called when the mpl process\n    // starts-up an IPython Comm through the \"matplotlib\" channel.\n\n    var id = msg.content.data.id;\n    // Get hold of the div created by the display call when the Comm\n    // socket was opened in Python.\n    var element = document.getElementById(id);\n    var ws_proxy = comm_websocket_adapter(comm);\n\n    function ondownload(figure, _format) {\n        window.open(figure.canvas.toDataURL());\n    }\n\n    var fig = new mpl.figure(id, ws_proxy, ondownload, element);\n\n    // Call onopen now - mpl needs it, as it is assuming we've passed it a real\n    // web socket which is closed, not our websocket->open comm proxy.\n    ws_proxy.onopen();\n\n    fig.parent_element = element;\n    fig.cell_info = mpl.find_output_cell(\"<div id='\" + id + \"'></div>\");\n    if (!fig.cell_info) {\n        console.error('Failed to find cell for figure', id, fig);\n        return;\n    }\n    fig.cell_info[0].output_area.element.on(\n        'cleared',\n        { fig: fig },\n        fig._remove_fig_handler\n    );\n};\n\nmpl.figure.prototype.handle_close = function (fig, msg) {\n    var width = fig.canvas.width / fig.ratio;\n    fig.cell_info[0].output_area.element.off(\n        'cleared',\n        fig._remove_fig_handler\n    );\n    fig.resizeObserverInstance.unobserve(fig.canvas_div);\n\n    // Update the output cell to use the data from the current canvas.\n    fig.push_to_output();\n    var dataURL = fig.canvas.toDataURL();\n    // Re-enable the keyboard manager in IPython - without this line, in FF,\n    // the notebook keyboard shortcuts fail.\n    IPython.keyboard_manager.enable();\n    fig.parent_element.innerHTML =\n        '<img src=\"' + dataURL + '\" width=\"' + width + '\">';\n    fig.close_ws(fig, msg);\n};\n\nmpl.figure.prototype.close_ws = function (fig, msg) {\n    fig.send_message('closing', msg);\n    // fig.ws.close()\n};\n\nmpl.figure.prototype.push_to_output = function (_remove_interactive) {\n    // Turn the data on the canvas into data in the output cell.\n    var width = this.canvas.width / this.ratio;\n    var dataURL = this.canvas.toDataURL();\n    this.cell_info[1]['text/html'] =\n        '<img src=\"' + dataURL + '\" width=\"' + width + '\">';\n};\n\nmpl.figure.prototype.updated_canvas_event = function () {\n    // Tell IPython that the notebook contents must change.\n    IPython.notebook.set_dirty(true);\n    this.send_message('ack', {});\n    var fig = this;\n    // Wait a second, then push the new image to the DOM so\n    // that it is saved nicely (might be nice to debounce this).\n    setTimeout(function () {\n        fig.push_to_output();\n    }, 1000);\n};\n\nmpl.figure.prototype._init_toolbar = function () {\n    var fig = this;\n\n    var toolbar = document.createElement('div');\n    toolbar.classList = 'btn-toolbar';\n    this.root.appendChild(toolbar);\n\n    function on_click_closure(name) {\n        return function (_event) {\n            return fig.toolbar_button_onclick(name);\n        };\n    }\n\n    function on_mouseover_closure(tooltip) {\n        return function (event) {\n            if (!event.currentTarget.disabled) {\n                return fig.toolbar_button_onmouseover(tooltip);\n            }\n        };\n    }\n\n    fig.buttons = {};\n    var buttonGroup = document.createElement('div');\n    buttonGroup.classList = 'btn-group';\n    var button;\n    for (var toolbar_ind in mpl.toolbar_items) {\n        var name = mpl.toolbar_items[toolbar_ind][0];\n        var tooltip = mpl.toolbar_items[toolbar_ind][1];\n        var image = mpl.toolbar_items[toolbar_ind][2];\n        var method_name = mpl.toolbar_items[toolbar_ind][3];\n\n        if (!name) {\n            /* Instead of a spacer, we start a new button group. */\n            if (buttonGroup.hasChildNodes()) {\n                toolbar.appendChild(buttonGroup);\n            }\n            buttonGroup = document.createElement('div');\n            buttonGroup.classList = 'btn-group';\n            continue;\n        }\n\n        button = fig.buttons[name] = document.createElement('button');\n        button.classList = 'btn btn-default';\n        button.href = '#';\n        button.title = name;\n        button.innerHTML = '<i class=\"fa ' + image + ' fa-lg\"></i>';\n        button.addEventListener('click', on_click_closure(method_name));\n        button.addEventListener('mouseover', on_mouseover_closure(tooltip));\n        buttonGroup.appendChild(button);\n    }\n\n    if (buttonGroup.hasChildNodes()) {\n        toolbar.appendChild(buttonGroup);\n    }\n\n    // Add the status bar.\n    var status_bar = document.createElement('span');\n    status_bar.classList = 'mpl-message pull-right';\n    toolbar.appendChild(status_bar);\n    this.message = status_bar;\n\n    // Add the close button to the window.\n    var buttongrp = document.createElement('div');\n    buttongrp.classList = 'btn-group inline pull-right';\n    button = document.createElement('button');\n    button.classList = 'btn btn-mini btn-primary';\n    button.href = '#';\n    button.title = 'Stop Interaction';\n    button.innerHTML = '<i class=\"fa fa-power-off icon-remove icon-large\"></i>';\n    button.addEventListener('click', function (_evt) {\n        fig.handle_close(fig, {});\n    });\n    button.addEventListener(\n        'mouseover',\n        on_mouseover_closure('Stop Interaction')\n    );\n    buttongrp.appendChild(button);\n    var titlebar = this.root.querySelector('.ui-dialog-titlebar');\n    titlebar.insertBefore(buttongrp, titlebar.firstChild);\n};\n\nmpl.figure.prototype._remove_fig_handler = function (event) {\n    var fig = event.data.fig;\n    if (event.target !== this) {\n        // Ignore bubbled events from children.\n        return;\n    }\n    fig.close_ws(fig, {});\n};\n\nmpl.figure.prototype._root_extra_style = function (el) {\n    el.style.boxSizing = 'content-box'; // override notebook setting of border-box.\n};\n\nmpl.figure.prototype._canvas_extra_style = function (el) {\n    // this is important to make the div 'focusable\n    el.setAttribute('tabindex', 0);\n    // reach out to IPython and tell the keyboard manager to turn it's self\n    // off when our div gets focus\n\n    // location in version 3\n    if (IPython.notebook.keyboard_manager) {\n        IPython.notebook.keyboard_manager.register_events(el);\n    } else {\n        // location in version 2\n        IPython.keyboard_manager.register_events(el);\n    }\n};\n\nmpl.figure.prototype._key_event_extra = function (event, _name) {\n    var manager = IPython.notebook.keyboard_manager;\n    if (!manager) {\n        manager = IPython.keyboard_manager;\n    }\n\n    // Check for shift+enter\n    if (event.shiftKey && event.which === 13) {\n        this.canvas_div.blur();\n        // select the cell after this one\n        var index = IPython.notebook.find_cell_index(this.cell_info[0]);\n        IPython.notebook.select(index + 1);\n    }\n};\n\nmpl.figure.prototype.handle_save = function (fig, _msg) {\n    fig.ondownload(fig, null);\n};\n\nmpl.find_output_cell = function (html_output) {\n    // Return the cell and output element which can be found *uniquely* in the notebook.\n    // Note - this is a bit hacky, but it is done because the \"notebook_saving.Notebook\"\n    // IPython event is triggered only after the cells have been serialised, which for\n    // our purposes (turning an active figure into a static one), is too late.\n    var cells = IPython.notebook.get_cells();\n    var ncells = cells.length;\n    for (var i = 0; i < ncells; i++) {\n        var cell = cells[i];\n        if (cell.cell_type === 'code') {\n            for (var j = 0; j < cell.output_area.outputs.length; j++) {\n                var data = cell.output_area.outputs[j];\n                if (data.data) {\n                    // IPython >= 3 moved mimebundle to data attribute of output\n                    data = data.data;\n                }\n                if (data['text/html'] === html_output) {\n                    return [cell, data, j];\n                }\n            }\n        }\n    }\n};\n\n// Register the function which deals with the matplotlib target/channel.\n// The kernel may be null if the page has been refreshed.\nif (IPython.notebook.kernel !== null) {\n    IPython.notebook.kernel.comm_manager.register_target(\n        'matplotlib',\n        mpl.mpl_figure_comm\n    );\n}\n","text/plain":"<IPython.core.display.Javascript object>"},"metadata":{}},{"output_type":"display_data","data":{"text/html":"<img src=\"data:image/png;base64,iVBORw0KGgoAAAANSUhEUgAABBMAAAGHCAYAAADiCRqvAAAgAElEQVR4nOzdeXxMV+MG8DvZV9KENhTBq6gGFUotJbRqrbaorYutaJW2Wm2p2l77NlSFhGhK1K5elMgkso6itGppItRStUuKWiMyz++P/nI5ZjJZZ86Meb6fz/nD5M6dc87Mucvj3nMVEBEREREREREVgSK7AkRERERERERkXxgmEBEREREREVGRMEwgIiIiIiIioiJhmEBERERERERERcIwgYiIiIiIiIiKhGECERERERERERUJwwQiIiIiIiIiKhKGCURERERERERUJAwTiIiIiIiIiKhIGCYQERERERERUZEwTCAiIiIiIiKiImGYQERERERERERFwjCBiIiIiIiIiIqEYQIRERERERERFQnDBCIiIiIiIiIqEoYJRERERERERFQkDBOIiIiIiIiIqEgYJpjx119/ITw8HDqdDjt37mRhYWFhYWFhYWFhYWFhsdmi0+kQHh6Ov/76y+LnywwTzAgPD4eiKCwsLCwsLCwsLCwsLCwsdlPCw8Mtfr7MMMEMnU6nfhGyEyYWFhYWFhYWFhYWFhYWFnMl7z/EdTqdxc+XGSaYsXPnTiiKgp07d8quChEREREREZFZ1jyHZZhgBsMEIiIiIiIishcME2wEwwQiIiIiIiKyFwwTbATDBCIiIiIiIrIXDBNsBMMEIiIiIiIishcME2wEwwQiIiIiIiKyFwwTbATDBCIiIiIisjXZ2dk4f/48jh07hoyMDJZHvBw7dgznz59HdnZ2gb8Nhgk2gmECERERERHZEoPBgOPHjyMtLQ3p6enST3RZLF/S09ORlpaG48ePw2AwmP19MEywEQwTiIiIiIjIlmRlZSEtLQ2nT59Gbm6u7OqQFeTm5uL06dNIS0tDVlaW2WUZJtgIhglERERERGRLTp06hbS0tEJd8k6PjuzsbKSlpeHUqVNml2OYYCMYJhARERERkS05duwY0tPTC7zcnR4tBoMB6enpOHbsmNnlGCbYCIYJRERUEpcuXUJaWhoP+IiIqNTk3UdPjqcw3z3DBBvBMIGIiIpr165dcHd3h6IoeP/992VXh4iIHhEMExwXwwQ7wjCBiIiKq0OHDlAURS2rV6+WXSUiInoEMExwXAwT7AjDBCIiKo7MzEy4uLgIYYK/vz/OnTsnu2pERGTnGCY4LoYJdoRhAhERFceSJUuEICGvdOrUifMnEBFRiTBMsA1BQUFo1aqVVT+TYYIdYZhARETF8dJLL5kMExRFQWRkpOzqERGRHXOkMCG/fampcvLkyQLXd+XKFYwfPx6JiYklrhvDBIYJZjFMICKiorp48SKcnJzUgxsfvwDhYMfHx6dQBzxERESmOFKYEB0dLZQvv/wSiqLg9ddfN/rbjRs3ClzfyZMnoSgKxo8fX+K6MUxgmGAWwwQiIiqqRYsWCeHB6x+MRUibV4TXQkNDkZubK7uqRERkhxwpTHhYYmJiicIAhgmli2GCGQwTiIioqEJDQ9XQQOPkhAmr9Zi84WeUCXhcCBTmzZsnu6pERGSHGCYYhwFZWVkYPnw4qlSpAldXV1SoUAEDBw4UJj6OiooyeXtEUFCQukxYWBjatm2LihUrwtXVFYGBgXjzzTdNXlHIMIFhglkME4iIqCjOnTsHjUajHqDUqN8EWl0GtLoMDJoiTsro4eGB9PR02VUmIiI7k98JZY8ePVC/fn2bLD169CiVtpsKE65du4batWtDo9GgX79+WLhwIYYOHQpnZ2dUrlwZFy5cAAAcP34cc+fONbpNYuPGjeq6qlWrht69e2P69OlYvHgxPvzwQ3h5eaFChQrIzMwU6sIwgWGCWQwTiIioKObPny8EBt0/nKiGCVpdBpp26in8vXHjxsjJyZFdbSIisiP5nVDWr1+/SBMWWrPUr1+/VNpuKkwYM2aMySv+VqxYAUVRMGjQIPW1gm5zMDXvQnx8PBRFwYwZM4TXGSZYOExYvXo1GjZsCA8PDwQEBKBXr144depUge/7+++/MW/ePLRt2xaVKlWCh4cHatasiUGDBuH06dNGy+f9KEyVJ554otj1Z5hARERF0bx5c3X/4+TkjP+u3SWECVP/9wv8AysJ+6nJkyfLrjYREdkRhgliGFCnTh34+/vj7t27wrIGgwE1atRAuXLl1NcKO2dCbm4url69isuXL+Py5csoW7YsunbtKizDMMGCYULeBFTNmzdHeHg4Jk2ahICAAFSsWBFnz541+96YmBg4Ozvj5ZdfxvTp0xEZGYmPP/4Ynp6eKFu2LH7//Xdh+bwfhalZPdevX1/sNjBMICKiwjp9+rRw4FQzpLkQJOSVYXO+F26FcHV1ddh7X4mIqOh4m4MYBnh4eOD55583ufyrr74KRVFw7do1AAWHCYmJiQgNDYWHh4dRINK6dWthWYYJFgoTsrKy4Ovri5CQEOHyzb1790Kj0WDgwIFm33/y5En88ccfRq/HxcVBURR069bNaPnCJExFxTCBiIgKS6vVCgcdPUZMNhkmaHUZCO0+QFh20qRJsqtPRER2ghMwWiZM2Lt3L1xcXFCrVi3MmzcPmzZtgk6nQ1xcHAICAoyCA4YJFgoTli5dCkVR8N133xn9rVWrVvD19UV2dnax1u3v749atWoJrz34o7h9+3ahnjFaGAwTiIiosJo0aXL/FgdnF0xavyffMGHapv1wcnZRl+/SpYvs6hMRkZ1gmFC42xwAGN3mcOrUqXzDhBEjRkBRFJw4cUJ4/caNG3BycmKYYIJFwoQhQ4ZAURQcPXrU6G+jR4+Goig4cOBAkdd79epVuLq6omXLlsLreWGCj4+PeulohQoVMHLkyBIFCwwTiIioMB6eu+fpxq3yDRLyypM16qjLBwYGwmAwyG4GERHZAYYJpidg/Oabb4RlV61aBUVRMHjwYPW1zMxMKIqC4cOHG637008/haIoOH78uPD6l19+CUVRGCaYYJEwoXPnzlAUBbdu3TL6W1hYGBRFwdatW4u83s8++wyKomDp0qXC63/++Sdat26Nr7/+Gps2bcK3336LLl26QFEUNGrUyGQ9Hnb69Gns3LlTKOHh4QwTiIioQDNmzBDChN6fzSgwTHj4yQ5//fWX7GYQEZEdYJhg/GjIWrVqQaPRYMCAAVi0aBE++OADuLi4oFKlSuqjIfPUqFED5cuXx7x587Bq1Sps3rwZAKDX6+Hk5IRatWphzpw5+Oabb9ClSxdUrVoV5cqVY5hggkXChDZt2kBRFOTm5hr9Le8WiHXr1hVpnevWrYNGo0H79u0L/b83eeHDnDlzClx2/Pjx+c4+yjCBiIjMCQkJUfcZzq6umLJxX4FhQs9Ppgj7mg0bNshuBhER2QGGCca3KWRmZmLYsGGoVKkSXF1dERgYiIEDB5qc+H/Pnj1o1qwZvLy8oCgKgoKC1L9t3LgRISEh8PLyQkBAAHr27Ik///zTZHDAMMFOrkzYunUr3Nzc0KhRI3XyjML4559/oNFo0KZNmwKX5ZUJRERUHMeOHRNCgWeatikwSNDqMjAyYrPwvlGjRsluChER2QFHDhMcnUOECaU5Z0JMTAzc3d3RoEED/P3330WuS7ly5VC3bt0ivw/gnAlERFSwKVPEKwzeHDW7UGHC7Jg0uHl4qe8rTPBNRETEMMFxOUSYkHcrw7Jly4z+FhoaCh8fn0I9zSEvSKhfvz6ysrKKXI+///4biqKgbdu2RX4vwDCBiIgKVq9ePTUQcHFzx9T//VKoMEGry0D14Ebqe8uUKWPy9kAiIqIHMUxwXA4RJmRmZsLHxwchISHIyclRX9+7d686MUaec+fOIT09HTdv3hTWERsbCw8PD9SrVw+ZmZkFft7DDAYDBg8ebHJmz8JimEBEROakp6cLVyXUa9Gu0EGCVpeB0O4DhPenp6fLbhIREdk4hgmOyyHCBABYsGABFEVB8+bNER4ejsmTJyMgIACBgYE4c+aMulzfvn2hKAoSExPV1/bu3QsPDw+4u7tj7ty5iI6ONioPev311/Hiiy/iq6++QkREBKZPn46mTZuqj/AozFUQpjBMICIicyZMmCCEAe+MmSuEBQt0adiZuiPfMOHtL+cK7zd1RR8REdGDGCY4LocJEwBg5cqVCAkJgYeHB/z9/dGzZ0+cOHFCWMZUmBAVFZXvkxXyyoOWLl2K0NBQBAYGwtXVFd7e3mjUqBHmzJmDu3fvFrv+DBOIiMicOnXqqPslN3dPTNu0XwgLUlITcTdpNhbHHzIZJoxZFi/s24YNGya7SUREZOMYJjguhwoT7B3DBCIiys/58+eFIODZVh2NwoKL+mVAwlQc1683GSbMiT0C77KPqeto3Lix7GYREZGNY5jguBgm2BGGCURElB+dTieECd0/nCAEBd/uOIDchKlAwlTkJkzF2sR9JgOF2s+1vH91g5tbsW/NIyIix8AwwXExTLAjDBOIiCg/Wq1WvEVB+70QEuzXbwf+P0xAwlRcTo2CNvaIUZjw8lvDhPXs3btXdtOIiMiGMUxwXAwT7AjDBCIiys+AAeKTGCZv+Pl+SBB7BP+kLBTCBCRMRXxKilGY8O6kCGE9YWFhsptGREQ2jGGC42KYYEcYJhARUX4aN26sBgB+5QKFgGBd0j6jIAEJU3Ez+RvMj0sTlp245ichTOjXr5/sphERkQ1jmOC4GCbYEYYJRERkSm5uLry9vdUAoHajF4SA4Kj+B5NhAhKm4lf9dqOrE/yfeFJdV506dWQ3j4iIbBjDBMfFMMGOMEwgIiJTjh8/LlxNENp9gBoMfK1LR3aSNt8w4W7iLCzZIT4qsn7L9uq6NBoN/vnnH9lNJCIiG8UwwXExTLAjDBOIiMiUTZs2CWFC75HT1WBAl6LPN0jIKyf064Qw4ZVBnwvrS0xMlN1EIiKyUQwTHBfDBDvCMIGIiEyZPHmycPL/SdgPajBwRr+ywDAhN2Eq1ibdf1Tk0NnRwvpmzJghu4lERGSjCjqhNPUYYpmlpBITE9X94+DBg00uc+PGDfj6+kJRFNSqVcvkMocPH0b//v1RtWpVuLu7w8/PD82bN8c333xToscy37x5Ey4uLli4cCEAIDs7Gx4eHpg/f77RsklJSXjttddQrVo1eHt7w9fXF8HBwZg4cSKuXr1a4GcxTLAjDBOIiMiUXr16CbclTN9yAFpdBhbFH8a9xBkFhglImIrM1G/VR0VO2/QrNE5O6jq7d+8uu4lERGSjHDVM8PDwQJkyZXDr1i2jZaKiotRlTIUJixcvhouLC/z9/TFixAhERkZi7ty5ePHFF6EoCho1aoRLly6VqH4HDx4EAOj1eiiKgl9//dVo2UWLFqFz586YMGECIiIiEBYWhr59+8LFxQXPPPMMbt68afazGCbYEYYJRERkSnBwsHriX/7JquoB067U+EIFCXklISVZfW9g0FPqOqtUqSK7iUREZKMcNUzo3bs3FEXB8uXLjZZp0aIFmjVrhqCgIKMwIT4+Hk5OTggODsaFCxeM3hsWFgZFUdC6dWsYDIYi12/KlCnw8/NT3zt9+nT4+vri3r17hV7HjBkzoCgKvv/+e7PLMUywIwwTiIjoYdnZ2XBxcVFP/Os2b6seMP2tjyxSmHBRv0x9b+N2XYVbHUwd8BARETlqmDBt2jQ0bNgQoaGhRv2hKAoiIyNNhgkNGzaERqNRrxwwpWvXf/fBP/74Y6HqdPnyZbW0b98ebdq0Uf/doUMHtGrVSv33nTt3ClzfmjVroCgKwsLCzC7HMMGOMEwgIqKHHTp0SDjpf/mtD6DVZSA6YT8MCVOKFCZkJ2nVWx26fzhBWO+WLVtkN5WIiGyQI4cJYWFh0Gg0OH78uPr3L774At7e3rh+/bpRmHDy5EkoioJmzZqZ/YzY2FgoioJ+/foVqk4P7q8LKlFRUUbvv3HjBi5fvoxTp07hhx9+QNWqVeHm5oajR4+a/VyGCXaEYQIRET1s1apVwkHCO1/Ng1aXgcP6H4sUJOSVqB3/zrcwYsEGYb1jx46V3VQiIrJBjhwmXLlyBR4eHvjqq68AAPfu3UOFChXQv39/ADAKEzZv3gxFUTB8+HCzn5GZmQlFUdCwYcNC1SkuLg5xcXGYNWsWFEXB4sWLERcXB61WC0VREBERoS5z7tw5o/cPGTJE2OcHBwcjNja2wM9lmGBHGCYQEdHDxowZIxwAfBG5DdrYI7iZPL9YYUJ8Siq0ugzM3HoILq5u6nrbt28vu6lERGSDHDlMAIA+ffqgcuXKyM3NVcOC1NRUAMZhwooVK6Aoiho+5CcnJweKoqBGjRpFqtuECRPg7++P3NxcAP/On/DYY48VOF9Ceno64uLisGbNGnz88ccICQkpcL4EgGGCXWGYQERED+vSpYt6wu/s6opZ2w5jS9LuYgUJSJiKQ/ot6gFXldr11XX7+/sXayIoIiJ6tDl6mBAfHw9FURATE4NXX30VNWvWVJe1xpUJD86X0KRJE3Tu3Fn9d8uWLdGxY8cizZcAAD/++CMURcHKlSvNLscwwY4wTCAioodVr15dPeGvWL02tLoMnNSvLXaYcF4frR5wtXj1beGqhwfvCSUiIgIYJhgMBlStWhWtW7eGi4uL+jpgHCacOHGiUHMm6HS6Qs+ZUNL5EvITEBCAFi1amF2GYYIdYZhAREQPunHjhnCQENLmFSzQpeFu4qxihwm3k+epB1x9Pp8prH/VqlWym0xERDbG0cME4N/bCxRFgbOzszAngamnOYSEhECj0eDw4cP5fkb37t0L/TSHvLkQJk6cqO6r4+LiMHnyZCiKghUrVpidL8EUg8EAHx8f1KlTx+xyDBPsCMMEIiJ60M8//yyc7Hca8Cl0KfpiBwlImApDwhQs2XEIWl0GRi2NEdY/YsQI2U0mIiIbwzABOHv2LMaPH4+IiAhhWVNhQmxsLDQaDerVq4dLly4ZrT88PByKoiA0NLRItxeOHj0aFStWVP89duxYPPHEE2bfc/78eZOvR0ZGQlEUDBw40Oz7GSbYEYYJRET0oKVLlwon++9OisDBndtKFCYgYSq2J+uh1WVg9vZ0eHj7qusv6HJHIiJyPAwT8mcqTACAhQsXwtnZGQEBAfjkk08QGRmJefPm4aWXXlLnSrh48WKR6tWsWTP07t1b/XfLli3xxhtvmH1P9erV0b59e4wbNw5LlizBrFmz0KVLF2g0GlSpUgV//fWX2fczTLAjDBOIiOhBI0aMEMKEr6ITcEa/ssRhwgH9NvWg66kGTdX1e3p6IicnR3aziYjIhjBMyF9+YQIAHDx4EH379kVQUBDc3NxQpkwZNG3aFPPnzy/0RIl5bt68CVdXV4SHhwMAbt++DXd3dyxYsMDs+2bPno3Q0FAEBgbC1dUV3t7eqF+/Pr788ktkZWUV+LkME+wIwwQiInpQ27Zt1RN9d08vzIk9guspYSUOE87qv1cPul7sJT57+sCBA7KbTURENqQwJ5T0aGKYYEcYJhAR0YMqVKignuQHPf0s5selIbeEQQISpuJm8nw1TOg3boEQJixZskR2s4mIyIYwTHBcDBPsCMMEIiLKk/cM6rzyfIceWJ+4t8RBQt4kjOHx/07COG5livA5gwcPlt10IiKyIQwTHBfDBDvCMIGIiPIkJSUJJ/mvvT8G+tSEUgkTkDAVPyb/pF6dUCbgcfVznn32WdlNJyIiG8IwwXExTLAjDBOIiCjPggXi7Qfvz/gOR3f+UGphwq/67WqY8EzTNurnuLq64u7du7KbT0RENoJhguNimGBHGCYQEVGeIUPEiREnrvkJl1OjSi1M+Eu/Wg0T2vZ5X/isQ4cOyW4+ERHZCIYJjothgh1hmEBERHmaN2+untz7+AVAq8tAdpK21MKE6ylhapjwzpi5QpiwcuVK2c0nIiIbwTDBcTFMsCMME4iICAAMBgPKli2rntw/9ezziIw/CEPClFILE3ITpiIs7ndodRn4InKbECaMGjVKdhcQEZGNYJjguBgm2BGGCUREBAB//fWXcHL/wmtvIyb5p1ILEvLKpuQ90OoyMCvmd7i4uqmf16lTJ9ldQERENoJhguNimGBHGCYQEREAbNsmXinwxseT8Kt+e6mHCXv1OvVWh0o1nlE/r3LlyrK7gIiIbATDBMfFMMGOMEwgIiIAmDlzphAmfPj1Gvy5c02phwmn9GvVMOG5l7sKn3nlyhXZ3UBERDaAYYLjYphgRxgmEBERALzzzjvCif3Ujb/gWmpEqYcJ11LD1TChy+BRwmempKTI7gYiIrIBDBMcF8MEO8IwgYiIAKBBgwbqSf1jTzyJubp03EucUephQm7CNMyPS4NWl4H3pkcJYcKCBQtkdwMREdkAhgmOi2GCHWGYQERE9+7dg7u7u3pSX6dJKFYl/lLqQUJe+SFpL7S6DExcs1MIE4YMGSK7K4iIyAYwTHBcDBPsCMMEIiLKyMgQTurb9ByMpJQki4UJu1Pj1VsdfPwC1M9t2rSp7K4gIiIbUOAJpYX2T8UuJZSYmKjuCwcPHmxymRs3bsDX1xeKoqBWrVomlzl8+DD69++PqlWrwt3dHX5+fmjevDm++eYbZGdnF7t+N2/ehIuLCxYuXAgAyM7OhoeHB+bPn2+0bFJSEoYOHYrg4GD4+vqiXLlyaNasGVauXAmDwVDgZzFMsCMME4iIaMOGDUKY8OYXs5Cm32Sxg64TO9erYcJTDZqqn+vr64vc3FzZ3UFERJI5apjg4eGBMmXK4NatW0bLREVFqcuYChMWL14MFxcX+Pv7Y8SIEYiMjMTcuXPx4osvQlEUNGrUCJcuXSpR/Q4ePAgA0Ov1UBQFv/76q9GyTZo0wZNPPolhw4YhIiICWq0WTZo0gaIoePfddwv8LIYJdoRhAhERTZgwQQgTPl20CRf0yy120HU1dbEaJrTq2k/47BMnTsjuDiIiksxRw4TevXtDURQsX77caJkWLVqgWbNmCAoKMgoT4uPj4eTkhODgYFy4cMHovWFhYVAUBa1bty7U1QEPmzJlCvz8/NT3Tp8+Hb6+vrh3757RsklJSUav5+bmomXLllAUBYcOHTL7WQwT7AjDBCIi6t69u3oy7+TkjJk/HsKt5PkWO+i6lzgDX+vSodVloNenU4UwYdOmTbK7g4iIJHPUMGHatGlo2LAhQkNDjfpDURRERkaaDBMaNmwIjUajXjlgSteu/z6O+ccffyxUnS5fvqyW9u3bo02bNuq/O3TogFatWqn/vnPnToHrmz9/PhRFwapVq8wuxzDBjjBMICKi2rVrqyfzT1T5DxbFH4YhYYpFD7zWJv0CrS4DIxaIt1hMmjRJdncQEZFkjhwmhIWFQaPR4Pjx4+rfv/jiC3h7e+P69etGYcLJkyehKAqaNWtm9jNiY2OhKAr69etXqDo9uG8uqERFRRW4vs8//xyKoiAhIcHscgwT7AjDBCIix3b79m04OzurBwT1W7bHluQ9Fj/w2qlPgFaXgelbDkDj5KR+/htvvCG7S4iISDJHDhOuXLkCDw8PfPXVVwD+feJShQoV0L9/fwAwChM2b94MRVEwfPhws5+RmZkJRVHQsGHDQtUpLi4OcXFxmDVrFhRFweLFixEXFwetVgtFURAREaEuc+7cObPrOnv2LPz8/FC9enXcvXvX7LIME+wIwwQiIse2f/9+4X8X2r0zHHtSdRY/8PpDv0GdN+HxStXUz69du7bsLiEiIskcOUwAgD59+qBy5crIzc1Vw4LU1FQAxmHCihUroCiKGj7kJycnB4qioEaNGkWq24QJE+Dv769OkDxlyhQ89thjJudLMOXmzZto3LgxXFxckJKSUuDyDBPsCMMEIiLHFh0dLYQJ/cYtwHH9eosfeGWlRqphQv2W7R+Ys8HJ5CzWRETkOBw9TIiPj4eiKIiJicGrr76KmjVrqsta48qEB+dLaNKkCTp37qz+u2XLlujYsWOh5ku4ffs22rZtCycnJ0RHRxf4uQDDBLvCMIGIyLF98cUXQpgw6tvt+Ds10uIHXjmJM6GNPQKtLgPt3/lQqMMvv/wiu1uIiEgiRw8TDAYDqlatitatW8PFxUV9HTAOE06cOFGoORN0Ol2h50wojfkSbt++jXbt2kGj0eDbb78tRC/8i2GCHWGYQETk2Lp06aIeELi4umH2tt9xN3GWVQ6+Vib8OwnjgAlhRZ7IiYiIHl2OHiYA9x/b7OzsLMxJYOppDiEhIdBoNDh8+HC+n5H35KbCPM0hby6EiRMnqk9giIuLw+TJk6EoClasWGF2voQHg4QlS5YUpgtUDhUmrF69Gg0bNoSHhwcCAgLQq1cvnDp1qsD3/f3335g3bx7atm2LSpUqwcPDAzVr1sSgQYNw+vRpk+8xGAwICwvDM888A3d3dwQGBmLw4MHIzMwsdv0ZJhARObannnpKPYmvUK0mlif8ZrWDr5TURGh1GRizLF4IEz755BPZ3UJERBIxTPh30sLx48cjIiJCWNZUmBAbGwuNRoN69erh0qVLRusPDw+HoigIDQ2FwWAodL1Gjx6NihUrqv8eO3YsnnjiCbPvuXPnDtq3bw+NRmNU98JwmDBh0aJFUBQFzZs3R3h4OCZNmoSAgABUrFgRZ8+eNfvemJgYODs74+WXX8b06dMRGRmJjz/+GJ6enihbtix+//13o/fkXYrauXNnLF68GKNHj4anpyeCg4Nx48aNYrWBYQIRkeO6c+cOnB54ksKzrTogPiXFagdfGfqN0OoyMHt7Otw9vdR6vPTSS7K7hoiIJGKYkD9TYQIALFy4EM7OzggICMAnn3yCyMhIzJs3Dy+99JI6V8LFixeLVK9mzZqhd+/e6r9btmxZ4FOXunXrpu7Lo6OjjcqBAwfMvt8hwoSsrCz4+voiJCQEOTk56ut79+6FRqPBwIEDzb7/5MmT+OOPP4xej4uLg6Io6Natm/B6eno6nJ2d0aVLF+H19evXl+i53AwTiIgc16FDh4QrAl5+axgO6bda7eArMzVKnYSxagYtbgMAACAASURBVJ0Gaj0K+l8PIiJ6tDFMyF9+YQIAHDx4EH379kVQUBDc3NxQpkwZNG3aFPPnzzc7UaIpN2/ehKurK8LDwwH8e+uCu7s7FixYUGD9zM2xMH78eLPvd4gwYenSpVAUBd99953R31q1agVfX19kZ2cXa93+/v5GP5CxY8dCURQkJSUZLV+1alVhhs+iYJhAROS41q5dK+zg3/5yLs7uXGm1g6+7SbPVSRif79hTqMuFCxdkdw8REUlSmBNKejQ5RJgwZMgQKIqCo0ePGv1t9OjRUBSlwEs4TLl69SpcXV3RsmVL4fV27drBycnJZKLUu3dvKIqCq1evFvnzGCYQETmuvImV8srI8E24kRJm1f/NWbbjN2h1Geg6bJxQl7i4ONndQ0REkjBMcFwOESZ07twZiqKYfBZ2WNi/s1Jv3bq1yOv97LPPoCgKli5dKrweHByMxx9/3Ox7TM2z8KDTp09j586dQsmbjINhAhGR4+nVq5d68q5xcsLcH/cj18qXhsam6KHVZeCD2SuEMEGr1cruHiIikoRhguNyiDChTZs2UBQFubm5Rn/LuwVi3bp1RVrnunXroNFo0L59e6NZNqtXr47KlSubfF/eLRB79+41u/7x48fne+8KwwQiIsdTv359dT8QULEKNiT9bPX7TH/Vb4dWl4HJG34W9kuFeQ42ERE9mhgmOC6HCBNK+8qErVu3ws3NDY0aNcK1a9eM/s4rE4iIqDTdu3cPHh4e6sl7nSatsTN1h9XDhFP6teokjH7lAtX6NGzYUHYXERGRJAwTHJdDhAmlOWdCTEwM3N3d0aBBA/z9998ml+GcCUREVJr++OMP4UqA1m8MxFH9D1YPE66kLlHDhKcbt1Lr4+HhgXv37snuJiIikoBhguNyiDAh71aGZcuWGf0tNDQUPj4+hXqaQ16QUL9+fWRlZeW7XN6tDMnJyUZ/49MciIioqLZs2SKECb0+/fdRjdYOE+4mzlKf6NCm52ChTkeOHJHdTUREJAHDBMflEGFCZmYmfHx8EBISgpycHPX1vXv3QqPRYMCAAepr586dQ3p6Om7evCmsIzY2Fh4eHqhXrx4yMzPNfl5aWhqcnJzQpUsX4fUNGzZAURT897//LVY7GCYQETmmmTNnCifuH85bjeykOVYPE5AwFVE7DkCry8Cbo2YLdVq7dq3sbiIiIgkYJjguhwgTAGDBggVQFAXNmzdHeHg4Jk+ejICAAAQGBuLMmTPqcn379oWiKEhMTFRf27t3Lzw8PODu7o65c+ciOjraqDxs5MiRUBQFnTt3xpIlS/Dll1/C09MTTz/9NK5fv16sNjBMICJyTP379xdO3L/ZtFNKkICEqYhJ3gmtLgOfRYhXS4wdO1Z2NxERkQQMExyXw4QJALBy5UqEhITAw8MD/v7+6NmzJ06cOCEsYypMiIqKyvfJCnnlYQaDAfPnz8fTTz8NNzc3PPHEExg0aBAuX75c7PozTCAickzPP/+8ur8p418e21PkhQn7/v+JDrO2HYazi6tar1dffVV2NxERkQQMExyXQ4UJ9o5hAhGR4zEYDChbtqx60v7Us89jv367tDDhhH6dOgljheq11HpVq1ZNdlcREZEEDBMcF8MEO8IwgYjI8Zw7d064Eq7Fq2/hT/1qaWFCVmqkGiaEtHlFqNs///wju7uIiMjKGCY4LoYJdoRhAhGR49mxY4dwwt5t2DhcS42QFibcTZqjPtGh87sjhbr99NNPsruLiIisjGGC42KYYEcYJhAROZ68CYTzyvszvkNO4gxpYQISpmLpjoPQ6jIwaPJioW4RERGyu4uIiKyMYYLjYphgRxgmEBE5ng8++EA4YZ+/Pl5qkICEqdiasgtaXQbGrUwR6vbBBx/I7i4iIrKygk4ow/aH2VQpqcTERKPJ+L29vdGgQQNotVrk5OSU+DPyc+XKFYwfP154WIBMDBPsCMMEIiLH06ZNG/VgxdOnDGKTU6WHCXv1Omh1GZgTewRevn5q/Vq2bCm7u4iIyMocNUzo2bMnoqOjsXz5csycORPBwcFQFAWDBg0q8Wfk5+TJk1AUBePHj7fYZxQFwwQ7wjCBiMjxVKhQQT1Zr1qnAfbrY6SHCcf169VJGP9Tr7FaPz8/PxgMBtldRkREVuSoYcK0adOE12/cuIFKlSpBo9Hg0qVLJf4cUxgmmMcwwQyGCUREjuXq1avCZZSN23XDKf0a6WFCZuq3apjQ4tW3hTqePn1adrcREZEVMUy4r3v37lAUBbt27VJfO3r0KN566y0EBgbC1dUVQUFBGDlyJG7cuCG89/Tp0xgwYACqVKkCNzc3lCtXDk2aNMGSJUsAAFFRUUa3VyiKgqCgoBK3qbgYJtgRhglERI5l165dwgHDK4M+x9XUxdLDhOxkrRomvPHxJKGOW7Zskd1tRERkRQwT7mvQoAEURVH7Y9++fShTpgwqV66McePGISIiAsOGDYObmxuaNm2Ku3fvAgBycnJQq1Yt+Pj44LPPPkNkZCS0Wi369++Pt956CwBw/PhxzJ07F4qi4PXXX0d0dDSio6OxcePGErepuBgm2BGGCWQvkpOT8emnnyIlJUV2VYjs2rfffiucqL/733DkJM6UHiYYEqZgyY5D0Ooy8PE364Q62sqll0REZB2OGiaMHTsWly9fxqVLl3Dw4EEMHTr036sIGzdWl61Xrx5q1KiBq1evCuv44YcfoCgKoqKiAAAHDhyAoiiYMWOG2c/mbQ7mMUwwg2EC2YNDhw7B3d1dPbH4/vvvZVeJyG599tlnwon6zBU/Sg8S8sqW5N3Q6jIw88dDcHZ1VevYsWNH2d1GRERW5KhhgqnSvXt3XLhwAQBw8OBBIXR4sFy6dAne3t7o3bs3AODUqVNQFAXt27dX328KwwTzGCaYwTCB7EGfPn2EjaqLiwtiYmJkV4vILnXq1On+WHJzx7bEZOkhQl7Zk6pTb3WoXKuuWs9y5cpxEkYiIgfiqGHCwIEDERcXh23btmHmzJnw9/dHkyZNcOXKFQDAmjVr8g0d8kqbNm3U9Y4ZMwZOTk5wcnJCgwYNMHLkSGHuBYBhQkEYJpjBMIFs3cmTJ+Hs7Gy0ofTy8sLu3btlV4/I7lSvXl0dRxWr18av+u3SQ4S88od+gxomNO/ypjDmT548KbvriIjIShw1THh4zoSdO3dCo9GgZ8+eAIDVq1dDURR8/PHHiIuLM1n27dsnrOPEiRNYsGABevToAX9/fyiKguHDh6t/Z5hgHsMEMxgmkK0bNmxYvsmrv78/0tLSZFeRyG7cunULGo1GHUMNQjvh1M610kOEvJKZGqWGCb1HThfG+9q1a2V3HxERWQnDhPveeecdKIoCvV6PX375BYqi4JNPPinW59y5cwdt27YVQvq82yEYJpjGMMEMhglkyy5fvgxPT0/1ZMK7jB8er1xdOMGoVKkSHxtHVEi//fabMH7avTMcV1IjpYcIeeVO8lw1TPgicptQ15EjR8ruPiIishKGCfcdO3YMzs7OaN26NQwGA4KDg+Hj44Njx44ZLZuTk4OsrCwA/z4KOu/JDg/66KOPoCiKegVDZmam0dUKMjFMsCMME8iWjR8/XjzxeXs4xq5IhF+5QOH12rVrIzMzU3Z1iWzeqlWrhLHzzph5uJs0W3qIkFcMCVMQHv/vEx1mb0+Hu5e3WtdWrVrJ7j4iIrIShgmiN9/899a/pKQk7N+/H4899hi8vLwwbNgwLFq0CFqtFkOHDkVgYKD6NIeNGzeifPnyeO+996DVarFkyRJ88MEHcHFxQb169XDv3j11/TVq1ED58uUxb948rFq1Cps3by5xm4qLYYIdYZhAturGjRvqfV2KosDN3ROT1v870/vnS7bCy9dPOClq0qQJrl+/LrvaRDZt3LhxwriZFLlBeoDwcNn8/0900Ooy8J/6je9fmeTtLRz4EBHRo4thgigtLQ1OTk544YUXAPx7a8KQIUMQFBQEV1dX+Pv7IyQkBKNGjVKv2D1x4gSGDBmCp59+Gr6+vvDy8kKtWrUwatQo9eqFPHv27EGzZs3g5eUFRVEQFBRU4jYVF8MEO8IwgWzV119/LZz0vPDa2+oJhlaXgQ+/XgM3d0/xyoV27ZCdnS276kQ264033lDHi5OTMzbFJUkPDx4uu1Lj1XHeuse7whg/fPiw7C4kIiIrKMwJJT2aGCbYEYYJZIvu3r2LKlWqCCc9X0UnCGGCVpeBQVOWwMnZRTjZGDdunOzqE9ms4OBgdayUr1QV+/Sx0sODh8tR/Q/qGO/7lRgqfvvtt7K7kIiIrIBhguNimGBHGCaQLYqOjhZOIELavGIUJOSVN0fNFpYNCgri8+iJTMjJyYGbm5s6VoKbvogTO9dLDw8eLpdSv1PH99gVicL4fv/992V3IxERWQHDBMfFMMGOMEwgW2MwGFC3bl1xFvfwTfmGCVpdBp5r+7qw/NGjR2U3g8jmHD16VBgnbXoORlbqUunhwcPldvI8dWzPiT0CH78Atc4NGzaU3Y1ERGQFDBMcF8MEO8IwgWzNtm3i4+BqP9fSbJCg1WXgnTFzhfd88803sptBZHM2bdokjJPeI6fjbtIc6eHBw8WQMAWL4g+r47tOk9ZqnV1dXXH79m3ZXUlERBbGMMFxMUywIwwTyNa0atVKOOEZOju6wDBh0vo90Gg06nteeeUV2c0gsjnTp08XxtaYBSulBwf5lf8l7VHHd7t3hgv13r17t+yuJCIiC2OY4LgYJtgRhglkS3bv3i2cNFSpXR9zYo8UGCZodRmoUque+j4fHx8+1YHoIX379hXG19qYOOmhQX7lp9QdwkSrvPKIiMixMExwXAwT7AjDBLIlr78uzn3Qb9w3hQoStLoMtO3zvvDepKQk2c0hsimNGzdWx4dfuUD8bINPcsgrGTs3qmP7v+t2CWP7nXfekd2VRERkYceOHUN6ejon1XYwBoMB6enpOHbsmNnlGCbYCIYJZCuOHDki3KpQvlJVzI5JK3SYMEz7vXDC8eWXX8puEpHNMBgM8PX1VcdHzZDmOK63vSc55JWL+uXC+PYPrHR/HpXatWV3JxERWdipU6eQlpbGK00dTHZ2NtLS0nDq1CmzyzFMsBEME8hWvP++eGVBjxGTCx0kaHUZmLXtMNy9vDnrO5EJZ86cEcbXC6+9jczUb6WHBvmVW8nzhfH9bKuOat01Gg2uXr0qu0uJiMiCsrKykJaWhtOnTyM3N1d2dcgKcnNzcfr0aaSlpSErK8vssgwTbATDBLIVQUFB6smC72PlMPPHQ0UKE7S6DAQ3fVE44bh06ZLsZhHZBJ1OJ4QJ3T+cgOwkrfTQIL9iSJiCsLjf1bHdZfAXQv137Nghu0uJiMiCDAYDjh8/jrS0NKSnp6v30bM8uiU9PR1paWk4fvx4gbe3MEywEQwTyBacPn1aOFFo3K5rkYMErS4D3YaPF9azatUq2U0jsglff/21MDY+nfMtDAlTpIcG5soPSXvv38Y0R7yNafr06bK7lIiILCw7Oxvnz5/HsWPHpJ/osli+HDt2DOfPny/UrS0ME2wEwwSyBd9/L54o9Pp0arHChC+/ixMncOzXT3bTiGzCe++9J4yN6I3bpIcFBRV9aqI6tqdt2g+Nk5Na/65du8ruUiIiIpKEYYKNYJhAtmDIkCHi5InfxRUrTNDqMhBQobK6nooVK3IWYCIArVq1UseFl68fdqXopIcFBZUjOzcJY7tCtZpqGypXriy7S4mIiEgShgk2gmEC2YI6deqoJwll/MtjTuyRYocJzTr3FoKJw4cPy24ekXSPP/64OiaqPROCY/oN0sOCgsqFh57o0LhdN2Fsnz9/Xna3EhERkQQME2wEwwSS7fLly8IJwrOtOhQ7SNDqMtB/fJiwvjlz5shuIpFU58+fF8bE8x174nJqlPSwoKBy86EnOnT/cKLQjs2bN8vuWiIiIpKAYYKNYJhAsm3cuFE4Qeg6bFyJwoQpG/fByclZXV+7du1kN5FIqu3btxs9yeF20lzpYUFBJTdhKhbo0tSx/UnYD0I7vvrqK9ldS0RERBIwTLARDBNItk8++UQ4QRgZvqlEYYJWl4FqwQ3V9Xl4eOD27duym0kkzfTp04Ux9tn8723+SQ55ZX3i/Sc6zNp2GC6ubgwKiYiIHBzDBBvBMIFke+6559STA0+fMpi9Pb3EYUL7dz4UTp50Op3sZhJJ06tXL3UsaDQarIlJkh4SFLakPvBEB60uA0FPP6u2xd/fnxOsEhEROSCGCTaCYQLJdP36dTg7378loU6T1iUOErS6DHz09VrxaoeRI2U3lUia2rVrq2OhfKWq+Ck1XnpIUNiSrhevVGrx6tvC2P7jjz9kdy8RERFZGcMEG8EwgWTS6XTCiUHnd0eWSpgwOyYNnr5l1fXWq1dPdlOJpLhx4wY0Go0wwenRnRulhwSFLRdTlwlju8/nM4VtxqpVq2R3MRHZscOHD6N79+6oV68eVq9eLbs6RFRIDBNsBMMEkmns2LHCicGH81aXSpig1WWgfsv2wrrPnTsnu7lEVrd7925hHHTs/wku6ZdJDwkKW24nzxPG9ailMUJ7RowYIbuLicgOZWVlYfjw4cLVkS4uLjhw4IDsqhFRITBMsBEME0imVq1aqTtxV3cPzNx6qNTChB4jJgsnHcuWLZPdXCKrCw8PF8bBoMmLcTv5a+khQWGLIWEKFsff3y7M3p4OD29ftT0tWrSQ3cVEZEdycnIQFhYGf39/YduYVxo3box79+7JriYRFYBhgo1gmECy3LlzBx4eHuoOvEb9JqUWJGh1GRi7IlE4QHjzzTdlN5nI6t577z1hHExbk2Q3T3LIK9uSfxLG9lMNmt6ftNXTEzk5ObK7mYjsQHx8PIKDg02GCA+Wr7/+WnZViagADBNsBMMEkiXvt5dXXn5rWKmGCVpdBh6vXP3+xHPlyyM3N1d2s4ms6vnnn1fHgI9fAH5I2iM9HChq+UW/XRjXL/YaImw7eFkyEZlz+fJlvP766yaDA3dPL7R49S3hNW9vb/z555+yq01EZjBMsBEME0iW6dOnCzvv92Z8V+phwguviTO///rrr7KbTWQ19+7dg7e3t/r7r9WwBXbqE6SHA0Utf+rFuVT6jVsgjOslS5bI7moislEGg0G4pVK4paFdV0xYlQqtLgNNO/UU/tapUyc+epbIhjFMsBEME0iWjh07qjttJ2cXTNu0v9TDhHcnRYiXeE+bJrvZRFaTkZEh/P5b93gXGTv/Jz0cKGq5lhIujOtx3ycL7Ro8eLDsriYiG/Xzzz8bhQhV6zTAx9+sE7YrU37YizL+5YXl+HQHItvFMMFGMEwgGe7du4eyZe8/urFK7fqlHiRodRmYtmk/nF1c759MtW4tu+lEVrNmzRrhwPit0XNwQb9cejhQ1HIvYTq+1qWr43pO7BHhoL9mzZqyu5qIbNTQoUOF7eCr743GnNgjJo8Z+o6dLyz7+OOPIysrS3YTiMiERyZMWL16NRo2bAgPDw8EBASgV69eOHXqVKHeu2bNGvTt2xfBwcHqo2nOnz9vctnExESjZDWvNGnSpNj1Z5hAMvz222/Cbzi0+wCLhAlaXQZq1G9y/4kRrq64fv267OYTWcXo0aOFcfb5kq24lfyN9HCgOGVt0j5hXIe0eUVo27Fjx2R3NxHZmNu3b8PPz0/dTpTxL49ZMb/ne7wwJ/YIgpu+KGxbBg4cKLsZRGTCIxEmLFq0CIqioHnz5ggPD8ekSZMQEBCAihUr4uzZswW+v1WrVvD09ETTpk3xn//8p1BhwuDBgxEdHS2U7du3F7sNDBNIhvnzxfR/wMSFFgsTOg34VPisuLg42c0nsooOHTqov3sXN3fM334AuTYQDBSn6FMThHH91ug5wrieN2+e7O4mIhuzevVqo1u9CjpmGLcyBe5e3sL7EhMTZTeFiB5i92FCVlYWfH19ERISIjyWau/evdBoNIVKMv/880/1vX379i1UmBAVFVUq9c/DMIFkeOONN4Qd9aT1eywWJnw4TzyYmDhxouzmE1lFhQoV1N995Vp18UPSz9JDgeKWozt/EMb1pPV7oHFyUtv38ssvy+5uIrIx7dq1E/b/X0RuK9RxQ7dh44T3PfXUU7h165bs5hDRA+w+TFi6dCkURcF3331n9LdWrVrB19cX2dnZhV5fUcKEmzdv4vbt28Wu+4MYJpC1GQwGBAYGqjvpwKo1LRYkaHUZmPnjITi73p83oV27drK7gMjiLly4IBwMP9+hB3alxksPBYpbLqdGGY3tas+EqO1zc3PjLUxEpPrrr7+g0WiKNTfT7O3pqFqngbAN/fLLL2U3iYgeYPdhwpAh/z7n+ujRo0Z/y7tPtSjPvi5smFCmTBl1w1atWjVMmTJFuDKiqBgmkLUdPXpU2EE369zbomGCVpchHBSUKVMGubm5sruByKJiY2OFcdZt2Dgc16+XHgoUt2QnzYH2oUnTOvb/RGjj//73P9ndTkQ2YurUqcL2ofuHE4t03PD5kq3CBM4uLi44dOiQ7GYR0f+z+zChc+fOUBTF5GVPYWFhUBQFW7duLfT6CgoT9Ho9OnfujIULF2Lz5s2IiIjACy+8AEVR8MorrxTqWbinT5/Gzp07hRIeHs4wgawq76qevPL2aK3Fw4TQ7gOEz+QBAT3qZsyYIfzmh89dhSupS6SHAiUpUTsOCuN6ZPgmoY2DBg2S3e1EZAMMBgOeeuopYc6YKRv3FfnY4eW3PhC2Mf369ZPdNCL6f3YfJrRp0waKopj8H868k6V169YVen0FhQmmGAwG9OjRA4qiYMOGDQUuP378eGGj+GBhmEDW0q9fP+G3N25lisXDhH7jFgifGRERIbsbiCyqd+/e6u9do9Fg2v/2ISdxhvRAoCQlNkUvjOs5sUfgV+7+LVNPPvlkoYJ1Inq06fV6YZ8f0rpzsY4dZv54CI89XlFdj6enJ65cuSK7eUSERyBMsPaVCfk5fPgwFEXBgAEDClyWVyaQLahevbq6Y/YPrGTxIEGry8CE1eKBRd++fWV3A5FF1alTR/29l3+yKlYl/iI9DChpOaA3njytaaeewtjev3+/7K4nIskGDhwobBeGTPu22McPHfp9LKxrwYIFsptHRHgEwgRrz5mQnxs3bqi3OhQH50wgazp79qywU36u7etWCRO0ugwEVKgszMxM9Ki6desWnB540kH9lu2RkpooPQwoaTmjX2k0rgdOXCRsUyZPniy7+4lIohs3bsDX11fdJviVr4DZMWnFPnYYvyoFTk7O6vrq1q3LK6CIbIDdhwl5tzIsW7bM6G+hoaHw8fEp1ac55Gf//v0luleUYQJZ08PPfO4xYrLVwoSGL3YRPvvSpUuyu4PIIn7++Wfht96x/whk6DdKDwNKWm4khxmN62mb9sPF1U1ta9OmTWV3PxFJtHz5cmH717bP+yU+fghu9pKwzl27dsluJpHDs/swITMzEz4+PggJCRGeprB3715oNBrhtoNz584hPT0dN2/ezHd9BYUJmZmZRq/l5OSgY8eOUBQFW7ZsKVY7GCaQNQ0dOlTYIY+OirVamNBtuDhnCGd+p0fV4sWLhd/6u5MX43JqlPQwoKQlN2EqFuiM/4exdqMXhPkhLl++LPsrICJJWrduLWz/vvwursTHD4Mmi9vU/v37y24mkcOz+zABABYs+HdSt+bNmyM8PByTJ09GQEAAAgMDcebMGXW5vKAgMTFReH9ycjImTZqESZMmoUGDfx9d98UXX6ivXb16VV22UaNGeOWVVzBhwgQsWbIEkyZNwjPPPANFUdC7d+9it4FhAllT3bp11Z2x72PlMOehR71Zsny6SJz5/fPPP5fdHUQW8XBoN+77ZNxNmiM9DCiN8kPSz0Zj+/UPxgrtjY6Olv0VEJEEJ06cELYF1es+VyrHD7Nj0owmYnzwGJ2IrO+RCBMAYOXKlQgJCYGHhwf8/f3Rs2dPnDhxQlgmvzDB3NMVFEXByZMn1WWnT5+OZs2aoXz58nBxcUGZMmXQokULLF26tET3bjFMIGv5+++/odFo7t/H/UI7qwUJeQcD7l7e6ue3aNFCdpcQWUSzZs3U37l32ccQtWO/9BCgtMqu1HijsT1mWbyw7yxJwE5E9uvh4+pen04ttWOIDn0/EtYdFhYmu7lEDu2RCRPsHcMEspatW7cKO+LX3h9j1TBBq8tAzZDm6ue7u7sXaV4TInuQm5sLb+/7oVnNBs0Qn5IiPQQorfKHfoPJsf1Elf+obX7ssceE2w+J6NGXm5uLqlWrqtsBNw8vTNv0a6kdP4xbKU7EWK9ePU7ESCQRwwQbwTCBrOWrr74SwoQRC0yfFFiyvPzWMKEOu3fvlt0tRKXq6NGjwm88tPsAHNJvkR4ClFbJSo00ObZDuw8Q2p2amir7qyAiK0pISBC2Ac+93LXwxwexRzA/ruAnPgQ3fVH4jD179shuNpHDYphgIxgmkLW0adNG3QG7untg1rbDVg8ThkxdKhwIaLVa2d1CVKrWrl0r/Mbf/GIWzutXSA8BSqvcTZwFrYm5VobOEmdwHzVqlOyvgois6O233xa2AR/MXlHgMcGaxH1I02/CzeT5OKlfV+Dy7z40EeODk60TkXUxTLARDBPIGu7duwcfH59SnxSpqGXKxn3CvA3du3eX3TVEpWrMmDHiRKOLf8St5K+lhwClWZYn/GY0tmdtOwwP7/vPlq9bt67sr4KIrOTatWvw9PRUx39Ahcr5TvC8bMdvOKCPwT8pi2BImKJuV3ITpiE6Yb/ZY4jZMWnwK19B/RwvLy9OxEgkCcMEG8Ewgazht99+E05w2vQcLCVM0OoyUKFaTbUeFStW5D2P9Ejp1KmT+vt2cXXDotj9wgHzo1B2pKSYHNv1W7YXtjN//vmn7K+DiKxg2bJlwthv/86HRtuHlQm/4O/USLPbwz/1qws8hmj3znDh98fYqwAAIABJREFUsxYuXCi7+UQOiWGCjWCYQNawcOFC8dLAiQulhQlNO/UU6nLq1CnZ3UNUap588kn1t125ZjC2Jf8k/eS/tMsh/RaTY7v3yOnC2F60aJHsr4OIrKBHjx7C2P9q+Q6j7cMf+g0FbltyE6ZiZcIvZo8hxn2fDI2T0/0nU9Wvz/+UIJKAYYKNYJhA1vDwvYwT1/wkLUzo/dkMoS4rV66U3T1EpeLSpUvCb7tJhzfwq3679JP/0i7n9dEmx/bENTuF9nfu3Fn2V0JEFpaTkwM/Pz913AdWrWm0bVigS8PdpNmF2r6c0a8s8DjimaZthG3Nzz//LLsbiBwOwwQbwTCBrKFGjRrqTrdcxSBpQYJWl4HRUTrhIGDYsGGyu4eoVMTFxQm/7a7DxuEv/SrpJ/+lXW4lf5Pv+K5cq67afk9PT9y6dUv210JEFpSamips91r3eNdou6BPTSj09sWQMAVrE/eZPY54d1KE8Jnvvvuu7G4gcjgME2wEwwSytIsXLwo73UYvvSo1TJgTewQ+Zf3V+oSEhMjuIqJSMWvWLDEo036P6ylh0k/+S7sYEqZgUbzpp8G0e1u8n3nbtm2yvxYisqDRo0cLY37orOVG24Ws1KVF2sbkd/VTXpkdkwa/coHqZ3p7e+PatWuyu4LIoTBMsBEME8jSNm3aJOzouw0fLzVM0OrEZ0U7Ozvj+vXrsruJqMTefPNNYazN2vgzcm3g5N8SZUvSbpNje8SC9bzyiMiBPPvss+p4d/fyNnrs9MqEX4o8Ca0hYQo2JP1s9jji4eCSc7QQWRfDBBvBMIEsbdSoUcIO99NFm6SHCZ3fHSnUKSEhQXY3EZXYM888c//RaBWrYGPSHukn/ZYqP+tjTf+P4fZ0+D5WTu2HatWqcXI0okfUmTNnhH15vRbtjLYJGfqNxdrGXExdZvY4YuyKJE7ESCQRwwQbwTCBLK1ly5b3/9fA0wuzY9KkhwnDtN8LByCTJk2S3U1EJXL79m04OzsLB9W7U+Okn/RbqpzUr813fDdu11UY37t27ZL99RCRBURGRgpjvceIycK2YH5cGrKT5hRrG2NImIJNSXvMHkvUadJa+PwdO3bI7hIih8EwwUYwTCBLunv3Ljw9PdUd7VPPPi89SNDqMjB9ywE4u7iq9erQoYPsriIqkX379gkHtR36foQT+nXST/otVa6kLs53fA+cuEjoi1deeUX210NEFtCtWzdhrI9flSJsCxJTk0q0nbmcGmX2WGLItG+Fz2/fvr3sLiFyGAwTbATDBLKkh09w2vZ5X3qQkFeq1K6v1svPzw+5ubmyu4uo2MLDw4WxNvC/4biSulj6Sb+lyr3EGZirSzc5tmfHpOHxytWF/ti/f7/sr4iIStHdu3dRpkwZdYxXrF7baFtwOTWqRNsZQ8IUbEnele9xxJzYI6hYvbawrTl48KDsriFyCAwTbATDBLKk+fPni49Pmpz//yZau7Tq1l+o2++//y67u4iK7eHJF/+7JhX3EmdIP+m3ZFmV+Eu+47vP5zOF/ujevbvsr4iISlFSUpIwxl/sNUTYBixP+K3IEy+aKlmpkdDGHin0tqZv376yu4bIITBMsBEME8iSevfuLc5NsN78/YfWLH3HikHHkiVLZHcXUbFVqVJF/S2Xr1QVaxL3ST/Zt3RJSknKd3zPivkdARUqq32i0WgYGBI9Qj7//HPxyS3a74VtQJp+c6lta2KSd+a/rdl2GH7lK6j1cHV1xZkzZ2R3D9Ejj2GCjWCYQJYUFBSk7mAfr1xdeoDwYBm/KkU4EOnfv7/s7iIqllOnTgm/5SYd3kBqaqL0k31Ll3S9+SfD9BgxWeiXN998U/ZXRUSlJDg4WB3bnj5lMCvmd3Xsz9Wl43bS3FLb1mSmfmt2W9NlsPjUqs8++0x29xA98hgm2AiGCWQp586dE3aujdt1lR4gPFz8n3hSrV+tWrVkdxlRsURHRwtjrfdnM3B05w/ST/YtXQp6dNvMrYeE/zF0cnLCsWPHZH9dRFRCp0+fFrZ5z7bqIIz9+JTUUt3W5CZMRWT8wXy3NVM3/gIPLx+1PmXKlMG1a9dkdxPRI41hgo1gmECWsmHDBmFn/8bHk6SHBw+XkNadhTpevnxZdrcRFdmgQYOE3/FXy3cgs4QTj9lDuZ00t8Ax3nXYOKFvBgwYIPvrIqISioiIEMZ1r5HThHF/Qb+81Lc3e1J1Zrc1rXu8K9Rp9uzZsruJ6JHGMMFGMEwgS/n000+FHevni3+UHh4UdKKxZcsW2d1GVGS1a9+fTdyvXCDmbE/H3aTZ0k/2LV0MCVPwXcJvZsf4jB8Pwte/vNo/Li4uOHXqlOyvjIhK4LXXXhP23RNW69UxH7XjAHItsL3JLOAxkeNXpQiPnK5UqRLu3r0ru6uIHlkME2wEwwSylGbNmqk7VQ9vX8zebvoxbjLLJws3Cgcko0aNkt1tREVy8eJF4Tcc0rozlu34TfqJvrVKSmpigeP84fuZ33//fdlfGxEV0507d+Djc/+Wgko1nhHG+yH9jxbZ1uQmTMPi+ENmtzXPvdxV2NYsX75cdncRPbIYJtgIhglkCXfu3IG7u/v9+QgatZAeHJgqs2J+h7unl1rPZs2aye46oiJZv369+AjEDydiR0qK9JN8a5Xj+vUFjvNpm/bDu+xjah+5ubnh7Nmzsr86IiqG+Ph4YZvXts/798d77BHcSp5vse3NT6nxZrc1n0VsEepWt25dGAwG2V1G9EhimGAjGCaQJezatUvYobZ7e7j04CC/UrvRC8Il0NevX5fdfUSF9tFHH4m3Ey3ZisP6LdJP8q1V/klZVKhx3rH/J0I/ffzxx7K/OiIqhodvofxw3mp1nG9P1lt0e1PQpK9aXQZqP9dSqF9sbKzsLiN6JDFMsBEME8gStFqtsDMdMnWp9NAgv9JpoHhgsn37dtndR1RoDRo0UH+73mUfw5zYIxaZfMxWS27CVCyKP1zgOJ+68Rd4+pS5/yg5T09cvHhR9tdHREX09NNPq+PYy9cPs2PS1HH+l36VRbc39xKmF7i9eX/mMuGY4qWXXpLdZYI7d+5gx44d2Lx5M3bv3o0TJ07gxo0bsqtFVGQME2wEwwSyhDfeeEPdkWo0GkzZuE96aJBf+Wj+OmHH/8UXX8juPqJCuXr1KpycnNTfbnCzl6DVZeB28jzpJ/nWLLEp+kKN9ZffGsY5Uojs2MmTJ4Ux3KB1Z3V8z9Wl427SHItvb/SpCWa3M3Nij6BSjWeEev7666+yuw43b97EvHnzULFiRaFuajDj5YWqVauiSZMm6NatGyIiInDhwgXZ1SbKF8MEG8EwgSzhySefVHdQgVVrSg8MzJVZMb/D3ctbrW/jxo1ldx9RoWzbtk04GHx1yGgsjj8EQ8IU6Sf41ixp+k2FGuuT1u8R5kjx8fFBVlaW7K+RiApp4cKFwjavz+cz1PG9OXm3VbY35/XRBW5r3h4tXp3Zp08faX12/fp1zJw5E48//rjJEMFc0Wg0eOGFFzBv3jz8+eef0tpAZArDBBvBMIFK2+nTp4Wd0fMdekgPDAoqdZqEqvV1dnbGtWvXZHcjUYFGjx4tjLURCzYgJnmn9JN7a5es1MLfRtWm5yChz15++WX8888/sr9KIiqEzp07Cye6E9f8pI7tNP1mq2xv7iXOQFjc7wX+J4X/E08KxxXHjh2zal9dvXoVkyZNgr+/f5FDhPxKo0aNMHXqVKSlpXFiSZKOYYKNYJhApW3NmjXCzqfXyGnSw4KCyiuDPhfqvHXrVtndSFSg5s2bq79Zd08vzIr5Hfv1MdJP7q1d7iXOwNe6wj16duKan+Dq7iFeKt2gAc6dO2fR7yo7OxvHjx/HTz/9xLCSqBhu374NL6/7VxZVrlVXGNvXUiOsts1JTE0qcFvz2vtjhO1MSEgIbt26ZfF+unfvHqZOnYqyZcuaDAScnJzxXNvX8dboOXj9g7Fo++ZQPN+xJ4KbvYSqdRogoGIVaDSaAoOFatWqYdiwYdi+fTtu375t8XYRPYxhgo1gmECl7eHZ5UctjZEeFhRURizYINR55MiRsruRyKxbt27B1dVV/c3mPX71rP576Sf3Msr/kvYUery/8fEkowPjoKAgpKWlleg7MRgM2LdvHyIiIjB69Gj06dMHzZs3x5NPPikcnPv7+2PdunWl9EsgcgyxsbHiVUVvDVPH9Lc7Dlj19q4z+pUFbmembfoVfuUChToPGDDAon109epVdPw/9s4zLKrj++NLlWpDE0WNvWuiaOxRo0aNsSbGFnuLJmpiokZjiQ0UpCiKgmDBir2gwi6wbLlYwYZSTPJTE0s0Yg2ClP3+X/gHHHdBysLc3T2f5/m8sbJ3zjl37tk7M/366Xz4t7C0QofPh2FhcMHHW3rLkrF0rxpDZy1FI5fOMLewfGdjwc7ODgMHDkRAQADu3LlTqp+RIHKgZoJIoGYCoW/atWuXd4NxrAgvaRL3ZsG79AxLYHZ6b9OmDe/LSBAFolAomMnc5+N/hLc0Ca8U3twf7Hl4SQgvUs6PWeANizeaMRKJBJUqVYJarS7yWKSnp2PHjh1o27ZtkV4ZHjt2LJ4+fVoK0UEQxsePP/7I5M8Pvgdy8zlGHVWm9SYz2gMbZAnvrDMzffZqPYwHBgaWyvX5/fffmZMucrS0skbngd9g8a7oYs2PVhw8h5Fz3dGiY09YWpd7Z10zMzPD6NGj8ddff5XK5ySIHKiZIBKomUDok7e/LW3Wvjv3RkFhbd6xxxuvAZrjyZMnvC8nQeTL8uXLmQncDK/d2Bsdx/2hnpf3hV1Fzvnv1uyAjb0jcx3LlStX6LcG7t27hyVLlhRrY7M334hQKpWlHC0EYdhoNBo0aNAgN2/sK1SCZ3je0iYeb2RFqlSFqjNDvl/M5Ly1tTUuXLig1+sTFRWFSpUqadWXzgO/wdK9ar3Nk1Ydu4hxi33Rrs+XcKxUpcDaZmNjgwULFtCyLqLUoGaCSKBmAqFP1Gq19relImgUFMZB09jN7I4fP877chJEvnz22Wd5r69aWcH9xFWcVUdwf6jn5SuFF7yL8RbUvM0nULFqda1v1ry9vfH8+XM8fvwYDx8+xP379/H333/j5s2bUKlUGDVqFCwtC37918zcHBWrVkfdFm3g0mMAeo2chqbtuun8Jm/u3LlIT0/nHVYEIUquX7/O5EzbXoNyc3idLBEZ0WvKvOb8JYQUqsZ4SZPg8ml/5uf/4IMP8O+//+rl2vj5+cHCwoL5963K2WDsQp9SnTN5hidi9oaD6D16Bmo1apFvHaxatSo2btyIzMxMvXxegsiBmgkigZoJhD7x8PBgbiLT3bdzbxIU1p83HWV+9tmzZ/O+nAShk4yMDNjb5x1nWq9FW3jLknFH2MP9oZ6ne6MvFiv3l+xRoXq9xsV+u+BNG7ftggm/+WFhcCTWnLqm88Hi6x9XwNrGTuvvfvjhh7h69Srv8CII0eHm5sbkyrjFvrk5Fao8w6XeZCg8C73x66pjl1CtTiPmM/Tu3RtZWVnFviYZGRmYNm2aVh2pUOV9zN5wqMznUEtDBAz5blG+byw0adIEoaGhdAoEoTeomSASqJlA6BPm2CZzc6w6VrzJPQ89wxNh51gx9+dv1aoV78tJEDo5d+4cM0nrNXIavKVJSFP4cH+g5+kZIarY+e92JA6NWncqVgPB2sYOnQd+g1+CThX6/1uwTYbaTVtp/1vW1rQ5I0G8xZt7MVlaWTNzi6SYY9xqjlQlFCHnpbCxc2DyffHixcW6Hnfv3kX37t216scHTT7S67KGYtXSo3H4bNR0rVNzcuzfvz9SU1P1HCGEKULNBJFAzQRCX2RmZsLRMW/98QeNP+TeICiqLTvnvTpuZmaGlJQU3peVILTw9PRkJmdT3YKwK/oS94d53t4S9pUo/z1OxqNtr0GFbiI4Va+FQdMWwPVIbLH+vzVh1/H5uB+0NmiztbXFlStXeIcZQYiCu3fvMvnx9l5Mz1WbONac/UXK+YlL/bTqSGhoaKGvRUpKCubNmwdbW1utf6dtr0FwP3GV+zwqxyW7lfi495c6j5kcM2YMvaFAlBhqJogEaiYQ+uL06dPMzaLniG+538yK6pDvFjGf4ciRI7wvK0FoMXDgQOYNILejcTitjuT+MM/bVOX6EtcAL2kSRs5Zjc4DRqHLoNHoOmQcug+diB7Dp+KzUdPRZ8xM9JswG1NcA+EZ9u7d3Avj7A0H8V7NukztadCgAZ30QBAA/P39mdz4+scVubmzXX65TI+EfNtXCi/4FHKpQ449R3zLfJ6KFSti165dePjwYb7X4L///oOrqysqVKig9WBuZmaG/pPniPbkrJ82HkHDVh20fm5fX98yjCLCGKFmgkigZgKhL1asYM9un2ZA+yXkODcglPkMs2bN4n1ZCYIhOzsblStXzo3Rmg2bw1uWjNtCCPeHed5q5K4IihTPN3NF0e1InFZDYfDgwfTtHWHy9O3bl3lwXhqSt7TgjAiaqKeUp4uU655hCfkuqXJxccH8+fMRFRWF9PR0vHr1CuvXr8f777+v88/bOVbEpGWbuNevd+klTcLg6QuZn93CwoJOsiFKBDUTRAI1Ewh98eb6PUsra6wOvcL9BlZUPcMTYV8h73illi1b8r6sBMEQHx/PTMi6fTke3rJkvFSu4z6pFoNylZJ7HSmu8zafgHU59vVlDw8P3iFHENx4/vw5rK2tc/OhTrPWTM7cF3Zyrzl/CgeLnOvL95/ROkVGq1FgZ4fq1XX/GWsbO/QaOQ2uhy9wr1uF1UuahPZ9hzKf47333sPff//NO8wIA4WaCSKBmgmEPkhNTWVu+A1bdeB+4yquH33Sh7nZFfTqIUGUNRs3bmTic8JvfgiOusx9Qi0WbwiHudeQkvjNfHY/DHNzc0RHR/MOO4Lgwv79+5l86D95Tm6u+EYkIDPag3vNSVf6FHmpg7fsdfOwZsPmhd6jRSKRwMLSCl0GjcGyfTHca1VxdD9xFbUat2Q+U/v27elYXKJYUDNBJFAzgdAHMpmMuTn0mzCb+02ruH41YwnzWWhndUJMjBgxgonP5QfOQFDLuU+oxeJTVQD3GlJSuwwazYzx+++/j7t37/IOPYIoc0aNGsXkwvwtYbl5ckp5mnu9yTFUcbbY+f7r9ggMnbUULTt/pnXaw5t743z82RAs2lH8E2vE4uJdCjhUqMx8vilTpvAONcIAoWaCSKBmAqEPfvnlF+bG8MO6ou1wLCZ/CTrFfJbvv/+e9+UlCACARqOBs7Nz3kNm7QbwliXjlrCf+2RaLGbLV8Ev4jr3OlISPU7G44MmHzF1qHPnzsjIyOAdggRRZmRkZDAbDr5Xsy6TJ8kxR7jXmxx/Fw7pJffXhF3HTJ+96D16Buo0aw1bh/L46JM+mBd4kntd0qffee6EubkFU+MCAgJ4hxxhYFAzQSRQM4HQB23bts29IdjYOWBNmOFO5r2kSXCsVCX38zRr1oz35SUIAMCff/7JTL46fjEc3rJkpCrXc59Mi8mibogmRhfvUjD7t0gkEsyePZt3CBJEmREREcHEf4/hU5gceaHy415rckxT+MBbpKcpiNVB0xYw42tlZYUzZ87wDjvCgKBmgkigZgJRUlJSUphzhJt37MH9JlVSW3Xrx9zk/vnnH96XmSCwbds2Ji6/me+JbVFXuB6NJkbjhVDuNUQfTlu9TeuM9v379/MOQ4IoE2bMmMHE/qy1Ibm5sYPzkZC6PK4s/lIHU9RLmgSXT/szY+zs7Iz79+/zDj3CQKBmgkigZgJRUg4dOsTcDAZPX8j9JlVSh85axnymkJAQ3peZIDBx4kQmLhfvUkCljuY+iRab/6q3ca8h+vLz8T8yY+7g4IBr167xDkWCKFU0Gg1q1aqVG/eOlarAMzxvk8Nzahn3OvO2v8cY9uavPFx9/DKc6zVhatzAgQN5hx9hIFAzQSRQM4EoKd999x1zI5i3+QT3G1RJnb81nPlM06ZN432ZCRPn7cl15fdrwFuWjD+Fg9wn0WIzM9qjWLuri1HP8EQ0a9+dqUcNGjTA48ePeYckQZQacXFxTMx3+HwYkxf/CDu415m3TVOupaUOxXBhcCTsHCsy461SqXiHIGEAUDNBJFAzgSgpjRs3zvv2oHJVeBnBzdRLmoTyTu/lfq7GjRvzvsyEiXPhwgWdk2sxrRsWkwcVhnP++rtceeg8nKrXYsa/d+/eyMzM5B2WBFEqLFnCnqo0eUVAbj68PhLSnXuN0eUxxTnu9cIQHbPAm90PqGNHaDQa3mFIiByjaSaEhISgTZs2sLGxgZOTE0aMGIFbt24V6u/u27cP48aNQ4sWLWBh8XpX04LWCmVkZGDFihWoX78+rK2t8cEHH2DevHlITU0t9s9PzQSiJNy5c4e5Abh82p/7TUlfvr2Wj45mI3iyYAG7WdVUtyAERsWLbt2wWIwVpNxriD6dGxAKaxs7JgbmzJnDOywJolT46KO800ysbezgfuJqbi6EKwXu9SU/bwi01KE4eoYnombD5kx9O3r0KO8wJESOUTQTNm3alHtkk7+/P1asWAEnJyc4OzsX6sGjW7dusLW1RceOHVG/fv13NhOGDx8OiUSCMWPGIDAwEDNmzICFhQV69OiB7OzsYn0GaiYQJSE4OJgp/iN+duN+U9KXw2avZD7b7t27eV9uwkTRaDRo1KhR3okp9o7wOBkPuUrJffIsVu/G7OFeQ/Tt+CXrmZokkUiwa9cu3uFJEHrlf//7HxPjH3bpw+TB78Ih7vUlP2mpQ/GdtprdYLhp06b09hVRIAbfTEhJSYGjoyNcXFyYYL9w4QLMzMwwadKkd/4bt2/fzv2748aNK7CZIJPJIJFIMHPmTObXPT09IZFIsHPnzmJ9DmomECVh7Nixb20IF839hqQvf93OHks1efJk3pebMFGuXbvGxGKbngPhLUvGHyKeVPPWWI9q6z2a3eHexsYGFy5c4B2iBKE31q5dy8T4qHkeTA6kqjZwry8FeYSWOhTbRi6dmbEPCgriHY6EiDH4ZsKWLVsgkUiwfft2rd/r1q0bHB0d8erVq0L/e+9qJowZMwYSiURrCcXLly9ha2uL3r17F+0D/D/UTCCKi0ajQY0aNXKLfhXn2txvRPrUS5qEilWrM5ueEQQPli9fzkywxi/ZAG9ZMp6rNnGfOIvZnfLL3OuIvvUMT0SLTr2YeKhZsyYdX0sYDZ9++mlubJubW2DFwbyH893yi6Jf2nWDTnUotj/5HWZqW40aNUq0lJswbgy+mfDtt99CIpHgxo0bWr+Xs7b1ypUrhf733tVMaNy4MZydnXX+XseOHVGpUqVC/19vQs0EorgkJSWxG+Z8MZz7jUjftu01mPmMv//+O+/LTpggrVq1yo1Bq3I2WH38Mvwj45EtgomzmBXUcu41pDR0OxqHarUbMrWpc+fORfoCgyDESEpKSu4eYhKJBA1bdWBi/6IQzr2uvMuXynVG+VZUWdn6rf2qVq9ezTssCZFi8M2E/v1fB/vLly+1fs/Pzw8SiQQnT54s9L/3rmaCg4MD2rVrp/P3vv76a0gkknd27/766y/ExMQw+vv7UzOBKBY5cZ7j2EVrud+E9O3oBV7MZ/Tw8OB92QkT488//2RisGWX3vCWJSNSpeI+aRa794Td3GtIablgmwy2DuWZ2JgyZQrtgE4YNDt27GBievD0hUzcP1Jv5V5XCiMtdSi+v26PgLmFZW4MVKxYESkpKbxDkxAhBt9M6NGjByQSic6ND3OWQBw4cKDQ/967mgnm5ub45JNPdP5ezhKIf//9t8D/47ffftPavClHaiYQReXLL79kYmj5gTPcb0L61u1IHCysrHI/Y4cOHXhfdsLEyNkXJ8dv5nvCW5aMGzGHuU+YxW5mtAd8IxK415HS8lu3LTAzN2fiY+bMmUhLS+MdtgRRLN6eVyzamfd20eu3sVZxryuFMVk4wr0+GLJdBo1m4mDu3Lm8Q5MQIQbfTKA3EwhTJisrC5UqVcpb11a/KfebT2nZtF035qb2999/8778hAnRsWPH3NizsLSC65FYeMuS8UwdwH3CbAjKVAL3GlKaDpw6X+vLgRYtWhRpmSVBiIG0tDTY29vnO69QqaO515PC+lLpS0sdSuCyfadRzjbvKNxy5crhr7/+4h2ihMgw+GYC7ZlAmDIXLlxgJq/dh07kfvMpLd8+InL9+vW8Lz9hIty9e5eJvSYfd4W3LBmbIq/RfgmF9Kawn3sNKU29pEn4uPeXWg0Fa2treHt7F/vYaIIoaw4dOsTEcO/RM5hYvyPs4V5PiuJhxXnu9cGQ7TNmJhMPEyZM4B2ihMgw+GZCzlKG4OBgrd/r3r07HBwc6DQHwmhZvXo1u1Z35WbuN57ScvmBM8yrxJ9++invy0+YCG/vSzJs9kp4y5IhVQncJ8qG4iuFN3xkidzrSGnqGZaALyb9zKwzzrFXr164e/dusWPwyZMnuHz5Mi5duoSLFy/mGhcXh7i4OFy5cgVZWVl6jHrCVOnbty8Tu3MCjufG+DpZIjIUntzrSVFMijnKvTYYsm5H4+BQoXJuPJibm+PatWu8w5QQEQbfTHj06BEcHBzg4uKCzMzM3F+/cOECzMzMMHHixNxfu3fvHhITEwtchvCuZoJUKs1dD/kmXl6vN4jbsWNHsT4HNROI4vDZZ5/lFXgLS6w6dpH7jac0bfBRe+aG9vDhQ95DQJgAPXv2zI07M3NzLNt3Gt6yZCTFHOU+UTYkjyvPcq8hZeFPfofxXs26Wg2FypUr49ChQ4WKucePH+Po0aOYPXs2WrduDTMzs3z3WsrR2dkZ4eHhpZwNhDFz69YtJtZqNW7JxPYJ5WnudaSo0lKHkjvk+8VMrRk4cCDvUCVEhME3EwBgw4YNkEheH8nk7++PlStXwsnJCdWqVcOdO3dy/1xOoyA6Opr5+0pQjb2xAAAgAElEQVSlEitWrMCKFSvQunVrSCQS/PLLL7m/9vTpU+bPDx06FBKJBGPHjkVQUBBmzpwJCwsLdO/evdivMlIzgSgq6enpsLW1zS3udVu04X7DKesbWlBQEO9hIIycR48eMUek1f+wXW48PlEHcp8oG5KmtBna6uOX0an/SJ0P/VWrVkWLFi3Qq1cvfPPNN/jpp5/g4eGBoKAg/Pjjj2jVqlWhmge6NDMzw8qVK2lZBVEs3t4g/OsfVzBxbagbzh6ipQ4l0uNkPJyq12JiQxAE3uFKiASjaCYAwJ49e+Di4gIbGxtUrlwZw4cPx//+9z/mz+TXTCjodAWJRIKbN28yf/7Vq1dYtmwZ6tatC2tra9SqVQtz587Ff//9V+yfn5oJRFGJjo4ucF2jMbpkj4r5zP369eM9DISRs23bNibmhny3CN6yZGyMvG4wO5qLxVTlepP7hnDScn/mFeGycuDAgXjy5Anv9CEMiKysLNSqlffAaG1jB7ejcXnxLE1CqnI99zpSHBOFY9xrgaE7ZoE3U2O6du1KR+ASAIyomWDoUDOBKCqLFi1iCvsML+M9y/1NazdtlTfZsbbWenOIIPRJzolBOS7epYC3zLB2NBeT+6JjudeQsnbZvhg0a9+92I0B+/IV0bJLb3wx6WcMnv7rGy7MtV6Ltlp/r0GDBrh69SrvFCIMhJMnTzLx0/7zr5k43iOP414/imsqLXUosZ7hiahRvykTI7SsigComSAaqJlAFJU3j6qzLmcLj5Px3G82ZWH/yXOZm9nu3bt5DwVhpDx//hzW1ta5sfZB4w9z4/CesIv7BNkQvSqc5F5DeOglTcLYRWvRttdgNG7TBdXrNYZjpSrMprJvNw+GfLcIcwKOwzP83RtXrjl1Dd2+HK/1b9nZ2WHPnj28U4kwAAYPHszEzg/r2BNYLglh3OtHSTwYfYF7HTB0J6/czMSIi4sLLakiqJkgFqiZQBSFx48fM+u4c46qMwV/3R7B3My++uor3sNBGCkhISFMrH0x6Wd4y5LhF3EdmdHu3CfHhuhTtfGeOFMcPcMSsGxfDOb4H8M09+2YGxBaqOZBfo5Z4A3rcrZaTYUffvgBGRkZvFOKECn3799n5hTV6zaC11vf5Keog7jXj5JISx1Krpc0CXVbtGFqy/79+3mHL8EZaiaIBGomEEUh50jUHAdNW8D9JlOWOtdrwnzzVtAJLQRRXIYNG8bk2fyt4fCWJSNareQ+MTZUNXJXbIu6wr2GGLNzA0JRtUYdrYbCqFGjeKcUIVJWrVqlc2+YHDdHxiNbBPWjJKYrfbDOyI+nLQtneO1mYqVx48bMaXqE6UHNBJFAzQSiKPTp00fnOm5Tsc/YmcznP3z4MO8hIYyMtLQ02Nvb58ZYtTqNcuPvjrCH+8TYkD0vyLjXEGPX9UgsWnTsqdVQOHDgAO/UIkRGdnY26tevnxsjllbWWHmIPf1AUMu51w19GK02rblSadnk465MXdmyZQvvMCY4Qs0EkUDNBKKwvH1UXZ1mrbnfWMrauQGhzI1s9OjRvIeFMDKOHz/OxFjv0d/DW5aMDbIEZEZ7cJ8UG7L/Ctu51xBT0DM8EX3GsI3X9957D//++y/v9CJERFRUFLsOvscArVgylgbqI/VW7nlpDP608QgTM7Vq1UJaWhrvUCY4Qc0EkUDNBKKwBAYGMkV88PSF3G8sZa2XNAlVa+a9xluhQgW8evWK99AQRkTOUcI5zvF/vd42UqXiPiE2dLPlq7Ap8hr3OmIKekmT0LzDp7TcgciXkSNHMvHxnedOJobWyRKREb2Ge93Qhxq5K/ZGx3HJRWOzVbd+TNz4+PjwDmWCE9RMEAnUTCAKS69evXKLt5mZGZbsUXG/qfCwx/CpdEQRUSpkZGSgUqVKubHl5PxB7mZkfwkh3CfExqBKHc29hpiKv+1VwcbekamXx44d451mhAh49OgRc2JN1Rp1tDZePKU8zb1e6NM/hEPcc9IYnL81HObmeW/JVqlSBc+fP+cd0gQHqJkgEqiZQBSGhw8fwvyNo8TqtWjL/YbCyx/XH2Amx1OmTOE9PISRcOzYMSa2Pv16ErxlyfCNSECGwpP7ZNgYvBuzh3sNMSVH/OzGxHT16tXx+PFj3qlGcMbHx4eJi/6T52jFzu/CIe71Qp9mRK+BX8R17jlpDLb//GsmfpYvX847pAkOUDNBJFAzgSgM/v7+7I7L3y/mfjPhpZc0CRWrVs/7RqVqVWRlZfEeIsII6NmT3bhu9oaD8JYlQ6oSuE+EjcXMaA/4RiRwryOmopc0CY3bdmHiesKECbxTjeCIRqNBs2bNcuPB3MISy/bFsLEjTUKq0pd7vdC3Z9UR3HPSGFyyWwlLq7w3W8qXL49Hjx7xDm2ijKFmgkigZgJRGHr06MEscVi6V839ZsLTT4aMZSbHSqWS9xARBs61a9eYmPqgyUe58XZL2M99EmxMSlUC9xpiSi7eFY1ydvZMfNPyMNPl9OnTTCx82KWPVszsi47lXidKw+eqTfB+azkHWTy7fTWB3V9ozhzeoU2UMdRMEAnUTCDexT///MMscaj/UTvuNxHefu+5i7mJzZo1i/cwEQbO1KnsXhzfzPeEt+z/NyFTeHGfBBuT/xMOcK8hpubQWcu0dmF/9uwZ77QjODBhAvsQONUtSCterginuNeJ0vKY8hz3fDQGl+8/g3K2drlxZGNjgzt37vAOb6IMoWaCSKBmAvEu/Pz8mBv/VzN/434T4a1nWAIcKjrlXpOaNWtCo9HwHirCQElJSYGtrW3eK5uVq8LjZDy8ZckIM7JNyMRgutKHvh0s65oZnogGH7Vn7iXTpk3jnXpEGfPs2TPY2eU9AFZ6zxmeYdrLjh6rg7jXidLybyGEez4ai71Hz2BqCh3XbVpQM0EkUDOBeBfdunXLW+Jgbq69ttFE7dBvOHMTO3/+PO+hIgwUd3d3Jpb6jp2VG2d/Cge5T36N0WMK+nawrF0YHAnrcrZMrEdFRfFOP6IM2bRpEzP+fcbO1IqTwKh4ZIugRpSWWfLVCIyK556PZe0GWQKShSO4JoQiUqVGUOTVEv+bbkfiYF++IhNToaGhvMOcKCOomSASqJlAFMS9e/dgZmaWW6QbturA/YYkFqe6BTE3sBkzZvAeLsIAyczMxAcffJAbRxZWVli27zS8ZcnwkSXilcKb++TXGE2KOcq9hpiig6cvZOpm3bp18d9///FOQ6IMePXqFerVq8d8ObFkt1IrRgS1nHt9KG2vCGHcc7Es3S6/jKeqAOYaaOSuSFOuxX1hJ67GnEKYMgY+ssQi/9vDZq9kaoqzszOdGGMiUDNBJFAzgSgIX19fpkh//cNy7jclsehxMh72FSrlXhsHBwdaA0wUmYMHDzI59nHvL3NjLFR5hvuk11hNVfrSUgcOeoYnom5zFybmFy9ezDsNiTLg7flEi069dMbIAyGYe30obV8qfYv14GyIhirOFropflsIKXJd9pImoZFLZya2xo8fzzvciTKAmgkigZoJREF06ZJ3pJe5uQWW7z/D/cYkJnuNnMbcwNatW8d7yAgDo2vXrkwM/bTxSG58/WFk56yLzXAlnerAw/lbw5lj3WxsbHD79m3eqUiUIs+ePUOVKlWYtxLmBoRqxUZQ5FWjXuLwpjJjP1VGmoRzahmy5auKdF3+EA4VuaGg68SYkydP8g57opShZoJIoGYCkR937txhCnMjl878b04ic8keFczNLXKvUYMGDZCdnc176AgD4dKlS0yO1WvRlpmIpSl8uE94jdl/hB3ca4ip2nPEt0zsjxgxgnc6EqXIokWLmPFu1+dLnXERK4Rzrwtl5QN1MPc8LC19IxJwswRHGicIx4r8f379w3ImxmrUqIEnT57wDn2iFKFmgkigZgKRH2vXrmUK87DZK7nfoMRoq279mOt04sQJ3kNHGAhvH5E2btG63Lg6pjjHfbJr7GbL3bBDfpl7DTFF3Y7GwbFyVSb+aR5inNy9e5c5wcHSupzOvRK8Zcl4pg7gXheo/pTMrVFX8EQdWKJro5G74lIR95XwkiahUetOTE2ZOHEi7/AnShFqJogEaiYQ+dGxY8e8JQ4Wllhx8Cz3m5QYnemzl7l59e7dm/fQEQbAw4cPUa5cudy4qVi1OtaEXc+Nqxsxh7lPdk3B5Jgj3GqHqTviZzemdrZt25be7DJCpkyZwoxzj+FTdcbD3ug4aOSu3GtCWWpsG8Fui7qitzfqNHJXnFVHFOn/X7QjCuVs7Zh4CwsL450CRClBzQSRQM0EQhe3b99minGTtp9wv0mJVS9pEmo1asFcr4SEBN5DSIiclSvZHai/mPRzXlxJk/BS6ct9omsKZig8sUGmfc49Wfp6hieiZoPmTB4EBwfzTk1CjyQkJMDc3Dx3fO0cK8L18AWd8ZAoHONeD8raVwovo6k/62SJSFEH6fX6ZMvdoFJHF+nnGDprKVNTatasiadPn/JOBaIUoGaCSKBmAqELLy8vdj3rz27cb1RidtQ8d+Z6TZ8+nfcQEiImIyMDzs7OufFiVc4GKw6ey42nw4oL3Ce5puQZdST3GmKqzvDazdTO6tWr48WLF7xTlNATgwYNYsZ30LcLdMeCNAkvleu41wIexgsnuOehPkyKOVoq1ydbvgqRKnWhfw7P8EQ0bNWBibspU6bwTgWiFKBmgkigZgKhi/bt2+cWYQtLK6w8dJ77jUrMepyIh0NFp7xvX+zsaOMfIl/27NnDTHQ6fD6MiacbAi1xKEufqzbRMZEc/ahrXyYfFi1axDtFCT0gCAIzrpXfrwGPE/E6Y+CE8jT3OsDLzGh3bIu6wj0PS2KkSl2qS1Syot0Rqiz8aWILgyNhbcMud5BKpbxTgtAz1EwQCdRMIN7m5s2bTAFu1r479xuVIdh79PfMdfPy8uI9lIRI6dCB/dbkzSPSNkZeR0b0Gu4TXFMzVEF7wvBy0Y4oraMib926xTtNiRKg0WiYfZckEgm++WVNvjFwqwQ7/xuDfwkh3POwuO6QX0aGwrPUr9ErhVeRmi5fzVii9dbTjRs3eKcGoUeomSASqJlAvM2KFSuYAjxyrjv3m5UhuHSvGhaWVrnXrW7dusjKyuI9nITIOHfuHJNfDVt1YOIoVpByn9iaoneEPdxriCnba+Q09vSgYcN4pypRAg4fPswe09egGTzDE3WO/QZZgsk3UDVyVxxRnCvTnNOHvhEJeKoquxM4HquDsE6mO47e1jM8EfU/asfEobOzMzUUjAhqJogEaiYQb5Keno5q1arlHeFkZZ3vZkmkti49BjA3rqNHj/IeUkJkDB48mD26atnGvBiSJiFVuZ77xNYUzZavMvhXjQ1ZXUdFqtVq3ulKFIPMzEw0btyYGctvV23Nd+wVKgX3/BeDT9SBBrfc6g/hUJlfpxtFOIFnYXAk7MtX1HpDISkpiXeaEHqAmgkigZoJxJts27atwLXcZMH+4HuAPQKrRw/eQ0qIiMjISCY+nKrXgmdY3k7ekSo19wmtKXs9JpRb7SCTMWLOKiY/2rRpQ0dFGiD+/v7MODZy6VzguP8j7OCe+2JRXcSTC3iqUCm4HOWpkbtCrlIW+uec438M9hUqaTUUEhMTeacKUUKomSASqJlA5KDRaNCyZUum4P4SdIr7DcvQ/KDJR8w1jI+P5z20hAjIzMxEixbsEaKjF3gxsfNIvY37ZNaUfaXwhm+EcRzTZoh6hieiZkP2qMitW7fyTl2iCDx48ADvv/8+M4Y/bcz/m+TAqHhky1dxz32xmKZcC7+I69xz8V3ull9EZrQHt+uUEb0Gu+UXC/3zzg0IhUOFykxcVqtWjY7xNnComSASqJlA5CCTyWjjRT04egF7rObUqVN5Dy0hAvz8/Ji4qNvcBV5vvNK6PzqWy7c8JKshfTNojM7wZo+KrFKlCv7991/e6UsUgszMTHTv3p19u6TnwALHm/aI0faaIO43pDbIEvBctYn7dXqu2oQNssI3f+dtPsGcuiWRSPD+++/j+vXrvFOHKCbUTBAJ1EwgcujTpw9TZKe7b+d+0zJEPU7Go/wba39tbW2RkpLCe3gJjqSkpKBy5bxvRczMzDB7wyEmbkx9N3Ox+EQdyL2GmLqtuvVj3+AZPZp3ChOF4Oeff2bGzdahPBbvKrg5V5ab9xmKWdHuCI66zD0PdSpNwm0hhPs1yvGWsL9IP/+8wJNwrFSFidP33nsP165d450+RDGgZoJIoGYCAQDx8fHszsv1mzLfmpJFs+/YWcz1dHd35z3EBEdmzJjBxEO7Pl8x8RIYFY+saHfuEzPy9XrcQ4rz3GuIKbt0rxo29o5MzoSFhfFOY6IAQkJCmPEyMzPD5JWbCxznPfI4ehsrH8V6ukysEM792rxdr2PUUUX6DL8EndJqKFSpUgUHDhyARqPhnUpEEaBmgkigZgIBABMnTmQK66h5HtxvWobssn0xsLDKOyayevXqePHiBe9hJjgQHx8PCwuL3FgoZ2ePpSECEy/xwgnukzIyz1vCPu41xNQdNnslc0/64IMPqIaKlPj4eNjZ2THj1WfszHeO8XXhOPdcF6sauSuOK89yz8M3PaE8Lcr9LbKi3bFfEVukz/JL0Cmt02MkEgl69epFGzMaENRMEAnUTCDu378Pa2vr3GJa3uk9eJyM537jMnQ//mwIc5NasGAB76EmyhiNRoOePXsycTBgyjwmTnwjEpCu9OE+ISPZyWlgFNVAnnpJk9Dgo/ZM7syaNYt3ShNv8eTJEzRs2PCt/ZY+hWd4YsFjLE3CS6Uv91wXs09VAaI5KjI46jJeKby4X5P8TFWuL3LNnr8ljFmSmqOlpSXmzp2L58+f804v4h1QM0EkUDOBWLRoEVNIv5j0M/cblzG4MDgSllZ5TRpra2v8/vvvvIebKEOOHj3K5FbVGnW0GnWCWs59IkZqmywU/ixzsnRcsE0GS+tyzKvzZ86c4Z3WxP+TnZ2NAQMGsK+LO9eG6+EL7xzbUMVZ7jluCJ5RR3LPQ7+IBDxT+XO/Fu/ymToAmyKvFemzLd4VjWbtP9VqKEgkEjg7O2Pv3r209EHEUDNBJFAzwbRJTU2Fk1Pe7rbWNnZYeYjWC+vLz775jrk59e/fn/eQE2VEeno66tWrx4z/pOX+bIxIk/BMTRuQidEs+eoiHT1Glo79J89hcqh58+Z49eoV7/QmACxfvpwZG+tytpgTcLxQ43qTNpwtdB0KVZ7hl4PSJNwR9nC/DoU1RR1UpBMecpy03B9O1WvpbCp0794dcXFxvNON0AE1E0QCNRNMm02bNjFFs8ugMdwnj8bk6uOXUbFqdeYanzx5kvewE2XA6tWrmXFv3LaL1qamocpz3CdfZP7eF3ZyryGm7pqw66jZoDmTS8uWLeOd3ibPyZMnYWZmxozLmAXehRpTv4jryFB4cs9vQzEjek2R9wTQl5eEMO6fv6g+EIKxTvaOZTY6dD9xFX3GzmTehnrTfv360ZtRIoOaCSKBmgmmS3Z2Nho1apT3Cqm5ORYG83+lztgcu2gtc0Nq2LAh0tPTeQ8/UYrcu3cPDg4OuWNubm6BX4JOacXGPWE394kXmb8auStOKU9zryGm7k8bj8DcPG8TUysrKzobniPXrl1DxYoVmftat68mFHo8xXYigCGYpvAp8+Miw5QxyBbBZy+Od4Xd8ClGQ8Fb9nqJaotOvXQ2FHI2aVQqlbzTkAA1E0QDNRNMl2PHjjEF8sMufbhPGo1RXRuJ0VGRxs24ceOY8f5kyFituAiOumywEzVT8rlqY7EnpaT+7DF8CpNTHTt2RHZ2Nu9UNzmioqJQoUIFZizqf9QOa8KuF2oc18kS8VK5jnteG6L/qTZgc2TZbAy7U34JGSLecLEw3hL2l2gDyymugXivZt18mwpdu3ZFREQE7anAEWomiARqJpgu3bp1Y3fKXhvCfcJorM4NCGW+WXNwcMDdu3d5hwBRChw8eJDJK/vyFXXuQ5Icc4T7ZIssnOfUMu41xNRdHXoFVZxrM7m1fv163uluUmzfvh2WlpbMGFSo8j6W7Sv82zsqdTT3fDZkn6gD4RdRuMZNcd0hv4z/lH7cP6s+vCEcLlFDwTMsAd/M98T7tRvk21T45JNPkJyczDs9TRJqJogEaiaYJrGxsUwxrN20FffJorH7yeAxzDUfPXo07zAg9ExycjIcHR2ZcR46a6lWLARGxSMjeg33iRZZOF8pvOBfRt8Ikvn73ZodbKPO3p6WO5QBGo0Gixcv1nqIqvx+DZ3Lt/JVmmQQpwKI3Qfq4u0JUBgjVWqj28/imhBa4uviGZ6IcYvWwbleE50NBVtbW/j6+tLbUmUMNRNEAjUTTJMRI0YwhXDconXcJ4rG7spD52FfoRJz3QVB4B0KhJ5ITU1Fy5YtmfFt2q6bzvPW/xQOcp9gkUXzhnCYew0hk9Hh82HsK/b16yMlJYV3+hst6enpGD16tNbDU63GLbFsX0yRxi5MeZp7HhuLt4R9JfrG/W19ZIlIFI5BI3fl/tn0rUbuikThGHwjin7Kw9t6SZMwcdlG1GrUQmdToUePHrh9+zbvtDUZqJkgEqiZYHqcOXOG/XahWk14hpW8yJLvdtjslcy1b926NbKysniHBFFCNBoNxo4dy4xtpfdrYMXBc1oxsF8RS3slGKDZ8lXYI4/jXkNMXdfDF1C5Wk0m13r27ImMjAzeZcDoSElJQdeuXbUemFp2/gyrjxd9M8CH6u3c89iYTBSO6aWhEBR5FY/U27h/ntL2uWojDiv0c/S5lzQJk1du1qpFEokE5cuXx7Zt22gvhTKAmgkigZoJpkVWVhZcXFze+Ro2WTp6hiWgZkP2mDN/f3/eYUGUkICAAGZMLaysMHvDQe0YkCYhRb2F+6SKLJ4P1MHcawj5eg+acrZ2TM7NmDGDdxkwKv744w80btxY60Gp25fji/Xlw35FrFF+683bR+ptOFSCB+TjyrNIU/hw/xxlZbbcDcnCEWyQ6ecLNLejcejQb7jOtxQGDhyI+/fv805lo4aaCSKBmgmmxaZNm5hiV6N+U3oroYydtW4fMwZOTk54+PAh79AgismFCxdgbW39VoNumc6xV6gU3CdTZPHVyF0hVQncawiZjInLNsLMzIzJu4CAAN7lwODJzs7GunXrYG9vz1xbM3NzDPl+cbHH6y8hhHv+GqsauSvuCHuwU36p8GMiTUKcEI5s+SruPz8P/1NtQKjirN7q0ZSVm1G+clWthoKTkxPCw8N5p7XRQs0EkUDNBNPh33//RaVK7Jr9mT57uU8KTdGPPxvCjEP37t3pNV0DJCUlBbVrszvMt+01CF46Xj3dIEugI9GMwP+UfqW2+RlZNPtNmM3knqWlJZ3/XgISExPRqVMnrQci63K2mLRsU7HH6fUxuKb50FqWZslX43fhEAKjdG8W6x8ZjyiVCn8Ih/BCZRynNZREjdwVfwiH9HY6xoqD59D60/5a+WNlZYUDBw7wTm+jxGiaCSEhIWjTpg1sbGzg5OSEESNG4NatW4X++3Fxcejbty/Kly8Pe3t7dOvWTefNMDo6WudrNBKJBO3bty/2z0/NBNNhyhT2nO6Pe3/JfTJoqi4NEWBjz+76P3PmTN4hQhSB7Oxs9OvXjxnDanUa5buW+JoQyn3yROrHWCGcew0hX69bfnvyXqVKFdy8eZN3eTAoMjIy4ObmhnLlymnNLytWqYbZGw6VaJxuCIe556wpmRG9BleFkwiKvAqZSsCNmMN4pvKnvXry8aVyHZKFIwhTxuhl+cPYRWthX74ik0fm5ubYvn0771Q3OoyimZDzynjnzp3h7++PFStWwMnJCc7OzoU6Qz4uLg52dnaoXbs21qxZA19fX7Ro0QKWlpaIiIhg/mxOM2Hq1KnYuXMnY0leoaFmgmlw7tw55pVQG3vHIp0NTerfySsCtF7T3bp1K+9QIQrJypXsZprl7Owxf6vuh8zgqMvIinbnPmki9WNmtAdtxigSV4de0dpZvWXLlnj+/DnvEmEQXLx4Ea1bt9b5RVWHfsPheiS2ROPjHxmPzGgP7jlLkoUxK9odD9XbcUkIx35FXLE3uFwaIuCDxh9q5dT69et5p7xRYfDNhJSUFDg6OsLFxQWZmZm5v37hwgWYmZlh0qRJ7/w3OnXqBHt7e+YYkadPn6JGjRpo2LAhsxNoTjNh27Ztev0c1EwwfrKystC2bVumoA35bhH3SSCp/ZqutbU1zp49yztkiHdw5MgRmJubM2NX0PGqd4Xd3CdJpH59ofLT2+uxZMlcskeltV550KBBdOZ7AaSmpmLBggWwsLDQXuddvRame+hns9ErwinuuUqSxTVd6YM7wh7ECuE4ojhXpOMl3Y7Gof6H7bTyy83NjXf6Gw0G30zYsmULJBKJztdWunXrBkdHR7x69Srfv//nn39CIpFg/PjxWr/322+/QSKR4PTp07m/9mYzITU1FWlpaXr5HNRMMH7e3mm+er3GWBNGk2Ax6CVNwkdd+zLj4+zsjHv37vEOGyIfDh48CEtLS2bMun05Pt8xDlWeoV3MjdS/hb16PeudLL4/+B6ApRW7Eer48eNpL5q30Gg02LdvH2rVqqX1kGNmbo5uX00o1rGPuvSNSEC60nROCiCN3yz5ajxRB+L3mMNQqaOxXV5wrqw+fhlNPtY+XnX+/Pl0dKQeMPhmwrfffguJRIIbN25o/d6CBQsgkUhw5cqVfP/+3r17IZFIsHnzZq3fk0qlkEgkWLduXe6v5TQTypcvnxuMdevWhaurK/NmRFGhZoJx8+jRI1SuXJkpYjO8d3Of+JF5rjp2CdXrNmJfL+3QAenp6bzDh3iLffv2aX2TV69FW6w5dU3n2PrIEvFctYn7BIgsPc8LUu41hHztqHkeWpP2Pn360JKH/+fq1avo3r27ziUN1Wo3xA/r9ut1PE6rI7nnJ0mWpjknaeyWX8w3D90XXzoAACAASURBVDxOxuPDLn20cm7GjBn09lQJMfhmQv/+rzf9efnypdbv+fn5QSKR4OTJk/n+fU9PT0gkEpw6dUrr965fvw6JRIK5c+fm/pogCOjfvz82btyI48ePIyAgAJ988gkkEgkGDBhQqA7XX3/9hZiYGEZ/f39qJhgxU6dOZYpX216DuU/4SG0XBkfCzpHdsGfSpEnUuRYRu3fv1lraULtpqwLXFJ9Ty7hPdsjSNUu+GkcU57jXEPK1n42arjVpb926tUm/7ZWSkoIZM2Zo1S+JRAILKyv0Hv09PE7oPgGg2EqT8J+STgwgTcNs+SrcEvYjOEr3mwprwq7j495fauXf+PHjkZWVxbtEGCwG30zo0aMHJBKJzq5SzhKIgo4CWb58OSQSCaKiorR+L2cJxPfff1/gz6DRaDBs2DBIJBIcOnTonT9zzvIJXVIzwfjI2b8jZ4xt7BywbF8M98keqdtp7tthbs5+6+3n58c7jAgAwcHBWhPxus1d4HYk/034/CPjkaHw4j7JIUvfl8p12Byp54cxslh6SZMwcOovWnOc2rVrIyEhgXcpKVOysrIQEBAAJycnnfO+5h174NftEaUyDpEqFfe8JMmyNud4zqDIq1o54RmeiC6DRmvl4cSJE+kNhWJi8M2Esn4zIT+uXbuWG4zvgt5MMB2ys7PRrh278cvg6b9yn+iRBTto2gJmzCwtLREZGck7nEyaLVu2aJ26Ua/lx1h1LP/XGr2lSfhb2Mt9YkOWnQ+EYPjIErnXEPK1Y371gYWVFZO3FStWhEql4l1SygSZTIYPP9TeTV4ikaBqzTqY4hpYatfeNyIBqcr13HOSJHmZGe2OROEYNkay+5N5SZPQc8S3Wjk5ffp0ehO1GBh8M6Gs90zIj//++y93qUNxoD0TjJNly5Yxhap63Ua06aIB6CVNQtteg5mxK1euXKHePCL0z9ubl0okEjT4qD1WHbtU4DjS8gbTNF4I5V5DyDy/99wFW4fyTP5aW1tj//79vEtLqREfH4++ffvqbCKUs7VD/8lz4XGydN+iiRdOcM9FkhSDz1WbdG7S2GfsTK38/PHHH6mhUEQMvpmQs5QhODhY6/e6d+8OBweHQp3mMGHCBK3fW7p0KSQS9jSH/Lh06RIkEgmmTJlStA/w/1AzwfgIDQ3V3ujFizZdNBR1nZtuZmaGjRs38g4tk0Gj0eS+PfamjVp3eudO54cU55ElX819EkOWvdlyN4QrBe41hMxzXuBJVHrPWSuXly5dWuAczdC4f/8+pkyZonNfBInk9X5JS/eqS/1675BfRla0O/dcJEmxmKbwwcHoC0yeeEmT0GvkNK08pVMeiobBNxMePXoEBwcHuLi4MKcp5KxTf3PZwb1795CYmIjU1FTm3+jYsSPs7e3x119/5f7as2fPULNmTTRo0IAJqEePHmn9DJmZmejXrx8kEglCQ0OL9TmomWBc3LhxAxUqVGCKU7evJnCf0JFFc2mIAOd6TbRuNIsXL6YbTSnz+PFjDBkyROvaN27bBatDrxQ4bv6R8Xip9OU+eSH5maHwwo53HBdGlq2/7VWhRv2m2jnduDEiIiJ4l5wSkZqaiuXLl8Pe3l5nE6Fucxe9n9JQkP8IO7jnIEmKzcxoD0Sq2GaelzQJ3b6aoJWzy5Yt411WDAaDbyYAwIYNGyCRSNC5c2f4+/tj5cqVcHJyQrVq1XDnzp3cPzdu3DhIJBJER0czf//ChQuwtbVF7dq14eXlhfXr16NFixawsLCAVCpl/mzbtm0xYMAALF26FIGBgVixYgWaN28OiUSCkSNHFvszUDPBeHjx4gWaNWum9Uo2LW8wTF2PxKLBR+21bjSTJ08u0XGwRP6cO3cOderU0brmzdp3h/sJ7Q2VGKVJuC/s5D5pIfn7UrmOGgoi0+1oHBq36aLzgXvYsGH4+++/eZefIvHkyRO4urrivffe0/mZqjjXxvgl6+ElTSqzaxypUnPPPZIUq9lyN8S+dZSwlzQJnQeM0srf1atX8y4xBoFRNBMAYM+ePXBxcYGNjQ0qV66M4cOH43//+x/zZ/JrJgBAbGwsevfuDUdHR9jZ2aFr1646/9zq1avRqVMnVK1aFZaWlihfvjy6dOmCLVu2lOibSmomGAcajQZDhw5lilHFqtWxfP8Z7pM4svh6nIhHq26fa91oBg4cqPWmE1F8NBoNvLy8YGlpqXWt23/+daGOTbsshHGfrJDi8aVyHXbKC95bgyxb15y6hu5DJ2qdmiORSGBvbw8PDw/RL324e/cu5syZA0dHR51NBDvHihg8/ddS3xfhbTfIEuitLJJ8hxq5K34XDjGb9XqGJ6J936Faubx27Vre5Ub0GE0zwdChZoJx4O7uzhQhSytrzN5wiPvkjSy5r48TGqN1o+nUqRNSUlJ4h57Bk5KSggEDBmhd33K2dvhmvmehxihUcRbZ8lXcJyqkuExTrqWGggidE3Ac9Vq01fkw3rRpU0ilUtEtJ0tKSsKkSZNgbW2t8+e2sLJC96ETsfLQeS7X9LpwnHu+kaSheF/YCb+IvLeGPcMS0KbnQK28LsxG/KYMNRNEAjUTDB+ZTKa16dKIOau4T9hI/eklTcIXE3/WutHUr18fSqWSdwgaLDExMahVq5bWdXWu1wTzt4YXamyCIq8iXenDfXJCilNqKIhTL2kSRs1zh0NFJ50P5w0aNMCKFStw+/ZtbvXpxYsXOHDgAAYPHqx1PO2bXxx06j8CC4MjuV3L3fKLtOksSRbRJ+rN8I/Me4NoTdh1fNRV+ySW3377TXTNTbFAzQSRQM0Ew+bmzZuoXLkyU3g6DxjFfaJGlo4j5qzS+Yru9OnT8ezZM97haDDcu3cPEydO1DlB79R/5Lv3R/h/fWSJeKTexn1SQorbNIUPdssvcq8fpLauhy+gy6DRMMvnFAQzMzP06tULu3btKpOlZU+ePMGOHTswePBg2NjY6PyZJBIJbOwd0XPEt1gawvn0EGkSHqq3c88xkjREn6n8sfnNhsKpa2jRsadWvs+cORPZ2dmlXn8MDWomiARqJhguqampaNWqFVNw6jZ3KfO1kmTZOnnlZliXs9W62dSqVQsnT57kHZaiJjU1FStWrNC583k5O3uMXehTpLFIEI5xn4yQhiE1FMTtTxuPoE6z1vk+vEskEpQvXx6TJk3C1q1bERcXh7S0tBLXpLS0NFy9ehWbN29Gnz59dO7bwvwMlaui/+S5cDsSx/2aecuSIVcpuecWSRqyz1WbEBiVN2/3OBmPVt36aeX+6NGjkZGRoYeZkPFAzQSRQM0EwyQ9PR0DBw7UmmSUxTnSJH/nBZ5E7aatdE42R48ejX///Zd3iIqK7Oxs7Ny5EzVr1tR5zWo2aI5ft0cUaQxiBSk0clfuExHScExT+GCPXBwPgaS2XtIkTHPfDpceA2BVLv+3AnL3KbCwQPPmzTFq1Ci4u7sjPDwc58+fR2xsLC5duoQrV67g2rVrSExMRHJyMmJiYhAUFIQ5c+agf//+qF+/vtYSxfysVrshhs1eWajNYMtKv4jrSFOu5Z5XJGnovlD5YWtU3tHTnmEJ6NR/hFYdGDBgAF6+fMl7SiUaqJkgEqiZYHikpqaiT58+7KTG0gqz1oZwn1yQZadnWAIGT/9V51sKVatWRUhICK2zA6BWq/Hxxx/rnKDbl6+IL2cswZpT14p07c9TI4Espq8UXjihPM29fpAF63okFsNmr0Td5i6FetgvDWs2aI7Px/+IX4JOcb8eukyKOco9n0jSWPxPtQHb3mgoeEmT0GvkNK260LVrVzx9+pT31EoUUDNBJFAzwbB48eIFunfvrlVchs1eyX1iQfJxYXAkGrbuqHMy2rJlS+zYscPkXo3LyMjAvn370LVrV93fKFq+3vnc9fCFIl/vs+oIaiSQJTJb7oZLQhi8pUnc6wf5budvDUevkdNQsUq1Um8g1GnWGgOnzue6oWJhDFPGIFsEuUSSxmSq0hfBUZeZXBs49RetOtG6dWs8ePCA91SLO9RMEAnUTDAcnj59io4dtR8ah85axn1iQfLVS5qEYbNXwsZe99njtWrVgre3N54/f847jEuVu3fv4rfffkP16tXznax/2KVPkZc05HhGHUmNBFJv3hV2Y2Pkdb3WArJ06+yiHVGYuNQPfcbORMsuveHk/EGxmgaW1uXgXK8JWnXrhz5jZmLMrz74ba+K+2csjHvkcchQeHLPH5I0Rl8qfbFDzjYUhv/kqrVJbL169RAXF8d72sUVaiaIBGomGAaPHj1CmzZtmEJiZm6OkXNWc59YkOLxt70qnTsB51ixYkUsWLAA9+/f5x3SekOj0UChUODrr78ucPOyWo1aYIbX7mJf2xh1FDUSSL37QuVH+ygYuG5H4jDTZw+GzV6JL2csweDpCzFo2gIMnPoL+k+eiy8m/ox+E2Zj0LcLMHnlZiwMjoRnWAL3n7s4+kfGI1W5nnvekKQxm6Zcq3VfGL9kPSysrJh5jbW1Nfz8/Ex2SSs1E0QCNRPEz4MHD9CyZUumgJibW2DMr0XbeZ40Db2kSfjOcyeatuuW74O1tbU1vvzySwQHB+PRo0e8Q7zIpKenQyaTYdasWahbt26B3wDWa9EWYxethWd4YrGvqaCW0yu9ZKmZEb0GkSrD+FaaNF3XyRLxLx2FS5JlYobCC8cU55gcnOa+HeVs7bSXOg8bZpLHg1MzQSRQM0Hc3L17F02aNGHXe1tZYeJSP+4TC1L8zg0IxcefDYG5Rf7f2FtYWODTTz/F2rVrcfPmTd4hny8PHjzAtm3b8NVXX8HBwaHABoK1jR06fjEccwKOl/gaUiOBLAs1clckCMfgIyt+04skS9M/Yg5xzxOSNCWzot21Gs3zAk/i/doNtOY99evXx8WLF3lP1coUaiaIBGomiJfz58+jTp06Wussp7gGcp9UkIblkt1KdB86EeXs7N+5lrdVq1aYN28eQkJCkJSUhOzs7DKP/fT0dMTGxmLz5s2YNm0a2rZtCzMzs3f+7O/VrIvB0xfC9UisXq7bWXUENRLIMvWJejP2R+snfklSX55Ty2iZF0lyMFvuhrNqdp+nVccuoV2fL3W+dbpx40aTWfZAzQSRQM0E8aHRaLBu3TpYvb02ysYO0z2CuU8qSMPV9fAF9J88FzUaNCv0RmH29vbo2LEjvvvuO2zevBlnzpzB7du3S3zWcVZWFu7du4fY2FgcP34cvr6+mDhxIlq1alXg3gdv61DRCR/3/hLTVm+Dl552x/eNSMBN4QD3SQRpmmbLV+G6cBy+EYa5rp40Lk8oTyNbvop7XpCkqfr6zbXjWicAjZyzWufx4MOGDcPDhw/19FQiXqiZIBKomSAunjx5giFDhmgVBhs7B8z02cN9UkEaj4t2yjHku0Vo2KoDzM0tCv3wzjzIOzigXr166NChAwYOHIhJkyZh2rRpmDp1KiZNmoQJEyZg3LhxGDNmDL755hsMGDAAbdq0QfXq1WH+1s7ERdG5XhP0GjkNP6zbX6K9EHS5LeoKnqgDuU8eSPKFyk9rzSxJlqW75ReRofDingskSbrhlrAP695aCpffsocKFSrAx8fHqI8Gp2aCSKBmgng4d+6c1rIGiUSC6nUb4ZegU9wnFaTxuuLgOYya54EPu/TRubkPbx0qOqFZ+0/x1czfsHhXdKldh+PKs0hX+nCfMJBkjtlyN/whHKIjJMkyd1PkNfyn9OOeAyRJ5vlACIZfBHs/WHXsEj7urb3sQSKRoEmTJggLC+P9iFMqUDNBJFAzgT8ajQZr167VWtYgkUjQ4fNhWB16hfukgjQdPcMS8EvQKYxe4IVPh01GI5fOsK9QqcwaBxWrVkeLjj3RZ+xMTFruj9/2qvS2fCFfpUk4L0jpVV5StL5Urnu9EVdp5wJJypKxU34Jz1Ubucc9SZLaPldtxD4de+uMnLMaNvaOOudWX3zxBZKTk3k/8ugVaiaIBGom8OWff/7B4MGDtZLe2sYO3/yyhvuEgiS9Za+Pm1yyR4VJy/0xePqv6DVyGjp8PgwtOvZEnWat4eT8QYGbO5qZm8PcwhLlbO1QtWYd1P+oHVw+7Y/uQydi4NT5GLPAG9977sLy/WfK/LNtkCXglrCP++SAJAvjE/VmyFQCNRXIUvOU8jQtbSBJkZsV7Y5zapnWvWD5/jPo1H8EzHQsJbWyssLPP/+Mx48f83780QvUTBAJ1EzgQ0ZGBnx8fFC+fHmdyxrmbwnjPqEgyaLqcSIeq0OvwONEPNaEXYdneGLpv1VQAvcrYvFMHcB9UkCSRfWpKgARamoqkHpUmoRYIZze0CJJA/K+sBObI+O18vnnTcdQ/8N2Or/gsbOzw3fffYekpCTej0MlgpoJIoGaCWVPVFQUmjdvrjPBO/QbTssaSLKU3SBLQFLMUZo0kwbvU1UAIlVqaiqQJdI3gt7QIklDNU3hgxPK01p57SVNwrjFvqj0fo183xz9/PPPIZVKDfI4SWomiARqJpQdt2/fxtdff60zmW0dK+Cb+Z7cJxQkaeyGKWOQqvTlfvMnSX36TB2AGHUUbdRIFtmtdIINSRq82XI3JAjHtE578JYlY3XoFXw+7gedx0jm2LRpU/j7+yM1NZX341KhoWaCSKBmQumTlpaGlStXws5Oe5d8MzMzdPxiOJYfKPu14iRpSgZGxeMvIQQauSv3mz5JlpaZ0e74WwhBmDIGPjomlST5pocV55GmoBNsSNJYfKIOxH6F9uaM3rJkLNsXgz5jZsKholP+p2c5OGD48OHYv38/Xrx4wfsRqkComSASqJlQejx//hyenp6oXr26zoSt06w1fvI7zH0yQZJGrTQJgjoar2hDMdLETFOuRVLMMeyNjuOfh6So3Cm/hFvCPlrqRZJGaLbcDbdj9mFblO5l0x4n4jFyrjtqNGhW4OlaNjY2GDx4MHbu3ImnT5/yfqzSgpoJIoGaCfrn0aNHWLJkCSpV0n2cnmOlKhg51x2e4fStEUmWmtIkhClj6PVd0uTVyF3xTOWP5JgjkKoErTPKSdNxt/wibgsh1EQgSRMwM9odCcLxfJe/eUmT8L3nLrTs0lvn6Q9vnwTRt29feHh44PTp03j16hXvxy1qJogFaibojzt37mD27Nmwt9d9RJ65hSW6fTUBbkfoWyKSLE1DlWeQot7C/UZOkmI0W74Kj4UgXBNCEao8A9+IBO45S5auu+UX8ZcQgmwRxB9JkmXrK4U3zgkRBS59W7QjCr1Hf49qtRsW2FR4862Fbt26YeHChQgPD8ezZ8/K/LmLmgkigZoJJUOj0eD06dOYMGECrKysdCachaUV2vX5CvO3hnOfUJCkMXtMcQ6P1NtoXwSSLIJZ0e54og7CHzGHcFodhQOKWJ2beJGGpY8sEccU56iJQJIkIHfDC5UfotWKd9b3X4JO4fPxP75zGQTzham5ORo3bozBgwfj119/xa5duxAXF1eqGzpSM0EkUDOheDx48ACenp5o2rRpvollXc4WXYeMw+JdCu6TCpI0Zg8rzuOBEExNBJLUk1ny1XimDsBNYT/OqiNwWHGB3mAwALdGXUGMIMcdYQ8yaJ8YkiR1mKbwQXzMCWzNZ0+FN10YHIkBU+ahTrPWMDe3KHRz4c2N5uvWrYvevXtj/Pjx+PXXX7F+/XocPHgQp0+fxs2bN5Genl6sZzFqJogEaiYUnszMTJw4cQJDhgyBpaVlvolj61Aen33zHZ3QQJKlqG9EAgS1HE/UgdREIMkyMKfB8L+YgzitjsR+eoOBu74RCQhVnkGicAzPVP5UC0mSLLTZ8lW4G7MHJ5Rn4C1Neme9cTsah2mrt6H36Blo2KpDgUdNFlUrKytUqFAB1atXR/369dGyZUt06NABPXr0QM+ePdG1a1d06NABLi4uaNmyJRo3bpy7wT01EzhDzYSCyczMhFwux8yZM+Hs7FxgIlSsUg39J8+lPRFIshQNjrqMROEYnc5AkiIwZ4nE7zGHoVJHY1f0pUJNSsni6RuRgFDFWcTHnMAjYRuyot25xwBJkobvC5UfYgVpod5WyHHNqWv4cf0BDJw6Hx917YtqdRrBwlL3ku/SlJoJnKFmgjZpaWk4fvw4xo8fDyen/M9izdkP4aOufTHVLQieYfQKKEmWitIkhCsF3Bd20tpfkhS5GQovPBCCcU0IRaRKje3yy9RgKKZBkVcRpoxBvHACj9TUPCBJsnTVyF3xRL0Z8cJJ7FfEFbl2rwm7jvlbwjB+yQb0mzAbLj0GoEaDZrBzrEjNBGOFmgmvuXPnDoKDgzF06NB8T2N40+p1G2Hw9F9pKQNJlpbSJBxRnseNmCNIU67lfoMl3zEBiaLXq8n8faXwwiP1NiQLR6BWR2NfdGyBO4ubmr4RCTgYfQGCWo4bMYfxr3obXim8uY8bSZKm7UulL/4QDiFMGVPifXM8TsRj0U45Zq0Nwfgl6zHk+8XoNXIa2vcditbdv0Dzjj3QqHUn1GnWGjXqN0XVmnVQocr7KO/0Hiq/XwNVa9ZBtdoNUaNBM3zQ5CNUr9eYmgliwFSbCU+ePMGRI0cwY8YMNGnSpFCdL8dKVdCp/0jM3nAQXvQtC0nqX2kS9itikSgcQ6rSl/tNlNTtK8Vq3Dm7AZfiNiP8chB2Xg6A/6WN2HV5M45dDkLk5SCcuxiI67EB+OusH54K9FBEapsV7Y7nqk24K+zGdeE4BLUchxXn8z0T3dDdFHkNB6MvIFqtwGXhFG4K+/FIvQ0vlevojSuSJEXv62VtgbghHIZCpcAOzm+dzfTZS80EMWAqzYRHjx7hxIkTWLBgAdq3bw9zc/NCNRAqV6uJbl9NwAzv3bSMgSRLQR9ZIo4ozuGaEIr/lH7cb5akthnRq5F0wR+Rl4Kw5/JmbLzoB79LRTPkciAuXgzEC5Un989DiluN3BXpSh88VgfhrrAbN4TDuCSEQaWORqjyDHbLL8Iv4roolk74RiRga9QV7IuORajiLKLVCsQK4UiKOYq/hBA8Um/Df0o/ZESvoc0RSZI0Ol8pvPGPsAPxwgnIVUrsV8S+rs9lUH+pmSASjLGZkJWVhStXrsDf3x/jxo1Do0aNirT2pnrdRug9egZ+3nSM3kAgyVIwMCoeglqOv4W9tJGiiH0qeCPmUhCCLm0qcvMgPzde9MPRy4FIuBCAV4rV3D8jabhmy1fhlcILqUpfPFMH4JF6K+4LO3FbCMGfwkHciDmCxJjjiBdCcVk4hVghHGfVEYhRR+G0OhJnhCicVUfinBCBc2oZzgtSxApSXBLCEC+EIinmKP4QDuGWsB93hD34R9iJR+qteK7ahDTlWmRGu1ODgCRJ8i01clekKXyQot6Cm8J+XBZOQaWORpjyNPYrYrEt6opejhqmZoJIMPRmwqtXr3D58mVs27YNP/zwA7p27QpHR8ciNQ8cKjqh9af9MfwnVyzaKef+oEWSxqZfxHWcUJ7GNSEUT1UB9EqviM2Wu+HmuU0IvbylWG8gFEX/SxshvbwFf53dQHsukCRJkqSJqJG7IiN6DVKVvnii3owU9RY8Um/DAyEY94WduCfsxh1hD24LIfhbCMF9YRceCsFIUW/BM3UAXqj8IPf7kZoJYsBQmgkajQZ///03ZDIZ1q5diwkTJqBVq1awsir6ESTWNnZo1r47Bk1bgDkBx+ntA5LUs4FR8YhSqXAj5jCeqDcjW76K+42LLNg0hTvi4jZjx2X/Um0g5Oeey5sRH7sZGQqKFZIkSZIkCzbG91tqJogBsTUT0tPTkZSUhOPHj8Pd3R3jx49Hu3btivy2wdv7Hrh82h9Dvl+M2RsOYc2pa9wftsgiKk1CYFQ8DinO45DiPPYr4rA3Og475ZcQHHUZW6OuYHNkPO0OzsGNkddxXHkWsYIUt4R9+E+1gV79NSCfCt5QXgpCwKWNXJoIbxt4aSPUl4Jo00aSJEmSJPOVmgkioaybCRqNBo8fP8aVK1dw9OhReHp6Ytq0afi/9u48PKryDBv4GwiQFVDqJyASraK28iFGqFqLKFqoS62tCnVBcPlUirRWwISqRfZ9yTpryLAvYTGULTHLZOZkmWSWwx6JbCGAiigoBElC7u+PORMJCcuQOUkmuX/XdV9czMY5PDOTnOe873uefPJJ3Hbbbde8MOLlEhzWEXfc9zs8PvRtvDExAZNW5zb5wRbj/YFprpSFPdJGlEkrcNqqQ4X52hZtq8qaiTM5CfhaWoJ90nrYrOnYmpOLxZkyGw0NTVoxFmVux9acXLikrSiTVuCMJZ5TFvw0x/NisVU2qj6V4brjjMf/ZCMO2RL5HmMYhmEYplbYTGgmfN1MKC8vx759+5CRkYHk5GRMmjQJb7/9NgYPHozf/OY3CAsLa1Cz4OLc8H+6496HB2Hwa+/jjYkJ+GRJJqcs+FmMGTuQZclBSe56nLaqO5e+KnsWTll0OCStgUPahs2WfOgzdjb5/0Fzy4L0vVie5USGxQpZ2oJD0mr8YDVcc0OHab65kDUdXxUmYp1sbPpmgRcxubTIdRrxXe7CJv8/ZBiGYRim6cNmQjNxrc2E8+fP48iRI7Db7di8eTMWLVqEGTNmYMyYMXj++ecRGRmJm266yWeNgovT+VddcfcDf8CAv76Ol/41Ge/PW44pawua/KCL8T6mLBmSNQsHpTXNYji8+xJkC/Gt1VQzkmFLTh5MTXztXFWTVgxjxg6kmm2wWLOxQ9pcc73zszmxXN+gBeaUdT4KnAaYmmg9BF+OVlgjG7Ddrkd5zuwm/39lGIZhGKZpwmZCM+FpJsyaNQsGgwFTp07FmDFjMHToUAwcOBD33HMPbrjhBlWaBJdOT7j17v+L+x9/Fn989R94efws/Cs2BdM3OJr+4Iu57iRnbofVmo1D0hqczYn1unlQleU+ECoriEexXQeHQ4/tdj2Ki7Q4YEvE0fw4nMhdiB8tc3HePNOnK8JXZs/CNlwyVwAAIABJREFUaYsWZdIK7JFSUSilIdNiwQazDaYsGTHNadpEWjG0GTuxNMuFDWYb0iwScq2Z2CFtxn5pLY5Ly/CD1YBzOTFsFrSSVGTPRHGRFp/LBiQ445u+EeDjaJwJ2CIbUVykw1k2FhiGYRimVYXNhGbC00xQvVkQ3gndfn03fvvgY/j9sy/j6Tc+xKvRc/Gv2BRMWWtr+oMxxicHtCuzHci1ZuKgtAZnc+KuuXlQkT0TZQXxsDsMSJONWCcbYXJpvZ7PnSxrsUk2otBpwEFboqoHGReypuO8eT5OW7T4TkrGcWkpSpXrm++VUrFd2oJCKQ2SNQuSNQsWazayrWZkWizIsFiRZpGwLUdCmkVChsWCLEsOcqxmSNYs5Frd1z+3S2nYIW3GXilVud75ahyVluMbaTG+txpxJicB583z2CBggKzpqM6chm/yYpDjMsLg0jT5AX9jj1gocBpxLJ/reDAMwzBMSw+bCc2EL5oJge074KZbbkOv+x9G/8F/w+DXRmPov6finelGRBm3YEaqs+kPdBmfx5C5E+kWCbuljThhTUZF9pxr/gI4a5mD/bZESE4j1soGaNRaBM4Zj8UuLbbKRjgcehzPj0NVM/gCZBhfpTJ7Bg7ZEpHjMmKxy8+nMfgoBpcGW2Ujdtr1+DovBhXZM5u8TgzDMAzD+C5sJjQTl2smtA1sh06/uhk97rwX9/R/FP0H/w2Dhv0//OXdCXg1ei7em2XCeN3/MDkln4setvDEfrEHa8x2WK3Z2Cul4mtpCcq9nLLwo2Uuiot0yHIZsUzWNemwa70rERtlA+wOA5sLjF/mbM5s7CnSYaucBH0zuaRjc06iKwErZT0yXEa4HAaUFcTjZzMbDAzDMAzjr2EzoZnwNBOGvP5P/GPOEkQZt2DKWhsbBK0sMel7sTRLxtacPBRYM7BXSsVRaTnO5CR4PYS+OnMaTlvnYW+RFplyEpY2cfPgatG5EpEqG2BzGnDYloBz5llN/gXJMJ5UZ07DKWk+iot0yJGNWC3rm+/lHP0pzngscmmwRjZgq5wEyWmE7NBjvy0R3+bF4KxlDiqzOX2IYfwx1ZnTcMYyB8fz47CvSAOnQ48clxEZLiPSZCO2ykZslo3YKBuRKhuwXjZgg2zANjkJOS73VMmddj2+KtSgrCAeJ6WFqDDz+4BhmlPYTGgmPM2EMQtWNvkBLaNOFqTvxaLM7VhvLkKGxQqbNR27pY04pKzgX54T16A59z+bZ6K0IAF2pwFb5CSY/H2otTMey2U9Ml1G7LLr8F3uQs7BZhot58yzcDQ/Dk6HHltkIxa1prUPmluc8dC5EmGStVgh67FONuB/shHpLiOyXEbkuIzIdSXB5jTC7jDA5XAfgOwp0uHLQg32F2pw2JaIsoJ4HM+Pw4m8hfheWoAzljmoMM/w6YKxDNPa4mkYHCmIxw67u1mQKhuwTNapM3VSaUCulQ1IdxlR4DRij12HIwXxOG2dx1GODNPIaTHNhFWrVuGBBx5AUFAQunTpgr///e84dOjQNT/f4XDgT3/6Ezp27IjQ0FAMHDgQOTk59T62oqICU6ZMwR133IH27dujZ8+e+Oijj3D27Nnr3n42E/wsacXQZOzC4kwZKWY7NuXkIcuSA5v0BXZKm1AirUOZtAInrMk4bdHinHmBzw6EqzOn4Yx1LkoLEiA79MiQk7Bc1jfrUQe+is6ViBTZgEyX++xlaUE8V5BnGpSfzTNxPC8Wu+w6WJVfgk0ubav4PDHuJDrd6zsskXVYJeuxXjZgs2xEppyEXJd7nZfddh32F2pwLD/ul0ZEtm+vXHM9qc6cVpOm/iwxLTtVWdPxg7QAB2yJcDn0yHIlYZ1saHaLzCY6E2CStVivNBvynO4TEodsifgmLwY/WuZy/RaG8WFaRDNBo9FACIFHHnkEWq0WU6ZMQZcuXdC9e3ccPXr0qs93OBwICQlBREQE5syZg9jYWPTu3RuBgYH44osv6jx+2LBhEEJg+PDhMBgMeP/999G2bVsMGjQIFy5cuK59YDNB/YP/hC92Q5+xE4szZazOtmO9uRCbcvKQbpFgtpiRa82sWbW/OPdz7JfW4oi0El9LS/GddRFOW3U4mxOLCvO8RjlDXpE9E99LC3DIlgiXw6D84G5lq8NfS5SzFJ/LBphdSXA49Cgp1OCbvBicM8/iL9mtPO7P0UIctiVil12PXKcR22QjUmSDe7QBmwZMA6JxJiDJpcEyWYfVsh6fK6Mmtsju99kXchIyZCOylREUVuXPbJcRGcroim3K4zfJRqQqV9FZLRuwTNbDJGthdGmgdSW636ueXLotznhoXYlIcmmwRNZipazHOtmIjbIBW2UjMl1G5DqNcDr02Fukw0FbIo7nx+KUNN/nl/Nl/DeV2TNwSlqA0oJ47LbrkOtyT0NYLuuR2Aw+bz6LMx56VyKWyFqkXDTSKbNmpJMRBU4DipzukU477O7LYcsOPVwOPZwOPewO9/2FTgPynUZYXUnIlpOQ7nJ/njcq0zZWy3qskvVYKeuxXNZjmazDUlmHxS4tTC4tTLIOi2Udlii3L5N1WKY8doXy3NWyHimyAeuU1/xcNmCjbMBG5XtjszJlZKvyvZOuTCXJlN3blCP/8v2TqzRYCh2/7NueIh32FWlwoFCD0oIEHM+LxXfK5b5/Ns/kqFDmivH7ZsLJkycRHh6OyMhIVFZW1txeVFSEgIAAvPXWW1d9jd///vcIDQ3F4cOHa247deoUbrnlFvTq1QvV1dU1t6enp7sP+seMqfUac+fOhRACS5cuva79aHHNhLRixH6xB4kZu6HL2AVjxg6YsmQszXJhZbYTa7LtWGcuRKrZhk05+dhmycUXVglZFkvNZfnylUvyuaSt2CFtxm5pI4pzP0eJtA4HctficO5qlEkrcFxaim+tJpy0JuEHqx4/WjQ4mxOHc+YFqDDPQ1X2LK8WKWyMVGbPwI/Wefg6LwYHbInYedFBzlrZgGSZZ0Z9FYNLg9Wye6i6WZmDucuuwwHlLMVPlrn8QelHqc6chp/NM3FKmo+v82Jw2JaI4iItnA49JKd7Hu4G2YDlst7deOPniGGuGq0rEYtd7gOrTbJ7+ki+04jtdj32FWlQWhCPE3kLccYyh8PI/TQV2TNxyjofx/PjsL9Qgx12PfKd7gPPdcqILK4Dw9QbpflikrVYLuuxRmlobJaN+EL53Sq3pkGhxw67ezRXcZEOXxVqcMCWiNKCBJQVxONoQTyO5sfV5NhFOZ4fi29zY3Ai1z0V7ZR1Pn60zMVZyxycM8/id08zjd83E5KSkiCEgMlkqnPfwIEDER4ejvPnz1/2+fv374cQAiNHjqxz38SJEyGEQF5eXs1tw4cPhxCizhSK8vJyBAcHY/Dgwde1H55mwrwELbblSEi3SMiwWJGpXPfebDHDYs2GZM2CZM1CnjUDBdYM2KzpsEtpsEvb4JS2QZa2Yru0BTulTdglbcJuaSP2Sqn4UtqAfbkb8JW0DvultTgopeCQtAaHpVU4Iq1EmbQCx6RlOC4txTfWxfjWasJ31mSctCbhe6sRp6x6nLZo8aMlEWdyEnDWEofynFicMy/AefN8VJjnojJ7NqqyWlcH80KWe5j0j5a5OJG7EGUF8dhfqMGeIh1cDvcParNy5mmD0t3nAU4zjDMeBpcGS2Ud1igd/zTZiBxlHrbLoccuu7tzf8iWiKPKvOtT1vk4mzOb866vkurMaahSPis/Webie2kBvs2NwdH8OByyJeKrQg32FmkhO/QodBiQ6zIiW07CNmVhrnVKc2CRrG1ZZ8cYxh/jjIfBlYhlsg4pytnRNOWAIt9lhFNp2JYUanDY5j7LeSJ3IU5b5/GAoAHx/L5xxjoXP1zyHVpcpMUOu/v7U3K5R8Nslo1Yr4xwMXhGtjT1e4dhGhJnPDTKtDRPY2O1MjVto2zEVjkJGXISzC4jJKd7dInDYcB2ZfRFSZEWB5X1c77Ji8VJyT36gt9LDYvfNxPefde9A/v27atz34QJEyCEwPbt2y/7/JUrV0IIAb1eX+e+tLQ0CCEQExNTc9vdd9+N7t271/taDz/8MG644Ybr2Itfmgm5se82+ZvCn1OdOQ2V2TNw3jwT5TmzccYyB6et8/G9tAAnchfim7wYHMuPQ2lBAg7aNPiqUIPiIh122XXYbncPXSt0uoeB5SjDULfJSfifcrZztazHMlmPZFkLHX84MxdHGWZsdGlgUoYprlKGJq6XDUhVzvht9QxBVH75/mXoYRLynUbYnAYUOgxwKEMpXQ4DZIceO+zuReV22XXYbddhT5EOe4u0KLbrUFykRXGRFl8WavBloQb7itzx/N1zf3GR+7F7i7TYo7zvd9l12HnJEE6HQ48ip/vKGvnK58E9PDvJPTz7opW4N8lJNatwr5UNWKV8RkyyFkkuDfSuRJ7tYhjml1w0JWOxy3NAYMB6ZUX/zUpzwjM9xKIMzc5Xznw6lO/FHXYDdilnQPcq33H7ijTYb0vE/kL3kO2DNncD+LAtEaXK2dHSgnglCbVjS8RhWwIO2RJx0JaIA4Xu1/qqMBElNd+lOuwt0mG3XY9ddvf3ssthqBn2XugwoFA5iMm76LvT4nJ/32cp35/pLvf35xbZiP9dNCQ+Rfk9Y7msxxLZPQy+1jSXpq4dw7TUKI0Ko6zBYlmHFcrvbxuUaTDblClrnmkwhcq0se3K72XFRVqUKN85pQUJOJYfh6/zYmoW/D1lnY+fLHNRnjMH53NmoTJ7Ros5+er3zYRnn30WQgiUl5fXuS8hIQFCCGzevPmyz/dMT9iyZUud+3bv3g0hBMaPH19zW1hYGH73u9/V+1ovvfQShBBXXYixtLQUubm5tbJgwQIIITDro6HYqPugJqm6f+NzT/Qf4nP9h9ig/xAb9GOxXv8h1uvHYr1+LNYZfslaw1ikKFljHIc1nj+NY7HaOA6rjOOwyjgeK43jseKiLDd+hGVJH2FZUhSWXpQlSVFYvCgKpkVRSPYkOQqLFkXBmBwF46IoGJOjoU+Ogi45GrrkaGiTJ0CTHI3E5GgkKIlLjkZscjRiTNGISY7GguRozDdNwDxTNOaaojHHFI3ZpgmYZYrCTFMUppuiMM0UjammKEw2RWGSKQoTTVH4r+kjfJI8Hh8nj8eE5HGISh6Lj5LHYmzyWIxN/lD5k2EYhmEYhmEYpvlmXLL7OCYqeRwmJI/Dx8nj8YnpI3xq+gj/NX2Eicox0GRTFKaYojBVOT6arhwrzTRFY6YpCrNMUZhtisYc0wTMMU3AXNMEzFMyX8kC5fhroSkaMaYJiFGOy2JNExCrHKfFJkcjzjQBccqxW7ySBFP9Gfuf1yCEQHp6+hWPf31BlWbCoEGDIISod+FDzxSIlJSUyz5/8uTJEEIgMzOzzn2eKRCjR4+uua1NmzYYMGBAva/lmQJx4sSJK26zZ/oEwzAMwzAMwzAMw/hztFrtFY9/fYEjExT1jUzYsGEDpk+fjvT09Dr3taRotdqaN1xTbwvDmrXksG7+F9bM/8Ka+WdYN/8La+afYd38L97WLD09HVqtFkeOHLni8a8vcM0EQm6usjZErvrzasg3WDP/xLr5H9bM/7Bm/ol18z+smX9i3fxPc66ZqldzWLx4cZ37HnvsMYSFhV3T1RzeeOONOvd99tlnEKJxrubQWjTnNyjVjzXzT6yb/2HN/A9r5p9YN//Dmvkn1s3/NOeaqdJM+O677xAWFobIyEhUVlbW3F5UVISAgAC8+eabNbcdO3YMe/furTMN4eGHH0ZoaChKS0trbjt9+jR69OiBO++8E9XV1TW3e0YrjBkzptZrzJs3D0IILFmyxNe72KI05zco1Y8180+sm/9hzfwPa+afWDf/w5r5J9bN/zTnmqnSTACA+Ph4CCHwyCOPQKvVYurUqejSpQu6du2KsrKymseNGDECQghkZ2fXen5RURGCg4MRERGBefPmIS4uDr1790bbtm2RlpZW59978cUXIYTA66+/DqPRiDFjxqBt27Z47LHH6l0Ikn7RnN+gVD/WzD+xbv6HNfM/rJl/Yt38D2vmn1g3/9Oca6ZaMwEAVqxYgcjISAQFBeHGG2/EsGHDcODAgVqPuVwzAQDsdjsGDx6M8PBwhISE4NFHH633cQBw/vx5TJo0Cbfffjvat2+PW2+9FePHj8eZM2dU2LOWpbS0FBMnTqw1CoSaN9bMP7Fu/oc18z+smX9i3fwPa+afWDf/05xrpmozgYiIiIiIiIhaHjYTiIiIiIiIiMgrbCYQERERERERkVfYTCAiIiIiIiIir7CZQEREREREREReYTOBiIiIiIiIiLzCZgIREREREREReYXNhBbiyy+/xKeffooHH3wQv/rVrxAWFob77rsPU6dOxZkzZ2o9NiIiAkKIy+btt9++7L9z4cIFPPTQQxBCYMiQIWrvVoumZs2u9Pi9e/c25m62OGp/1s6dO4cZM2agT58+CA4ORseOHREZGQmDwdBYu9jiqFWz5OTkKz5WCIGysrLG3t0WQc3P2fnz5xEbG4u+ffuiY8eO6Ny5Mx544AHExcWhoqKiMXezxVGzbj/99BPGjx+PX//612jfvj1uvvlmjBw5kp+xBvKmZgCwY8cODB06FD179kRQUBAiIiLw6quvYufOnfW+fkZGBgYMGIDQ0FB06tQJzzzzDHbs2KH2brV4atZNq9Xi5Zdfxl133YWAgAB06NChMXapxVOrZmVlZZg+fToeffRRdO3aFSEhIfjtb3+LcePG4bvvvlN9v9hMaCGioqIQFhaGV155BbGxsdBoNBg6dCiEEOjTpw/Ky8trHrthwwYsXbq0TjxNgtTU1Mv+O3FxcQgLC2MzwQfUrFlERATuueeeep9z+vTpxt7VFkXNup06dQr9+/dHSEgI3nvvPRgMBsTFxeGf//wnPv7448be1RZDrZrt37+/3sfOnj0bQgjcf//9TbG7LYKanzPP67zwwgtITExEXFwcHn/8cQgh8Prrrzf2rrYoatWtvLwckZGRCAgIwIgRI6DVahEVFYXQ0FDceuutOH78eFPsbovgTc0cDgeCgoLQvXt3TJo0CUajEVFRUejUqROCg4Oxa9euWq+9adMmtGnTBr1790ZcXBzmzJmDnj17Ijw8/LLNB7o2atYtIiIC4eHhGDhwILp27cpmgo+oVTONRoP27dvjr3/9K+bNmwe9Xo+3334bgYGB6NGjh+rfj2wmtBBFRUU4depUnds//vhjCCEQFxd3xeeXl5ejU6dO6NatGyorK+t9zJEjRxAeHo558+axmeADatYsIiICAwcO9OXmkkLNur3++usIDQ3lWRsfa4zvx4tNnz4dQgjEx8df9za3dmrVrLS0FEIIPP/887Uef+HCBdx///1o06YNzp4965udaIXUqtuCBQsghMD06dNrPd5isSAgIABvvfWWb3agFfKmZm+++SaEEJBludZjN2zYACEEoqKiam6rqqpCz5490aNHj1onMQ4fPozQ0FA88cQTKuxN66FW3QDg4MGDqK6uBgAMHDiQzQQfUatmu3btqrdhYDAYIITA2LFjfbgXdbGZ0MLt2LEDQgi8++67V3zckiVLIIRAdHT0ZR/z3HPP4b777kNVVRWbCSryRc08zYTKykqcPn265ocCqaehdTt06BDatGmDDz74AID74Oann35SbXvJt9+PHtXV1bjzzjsRHByMH374wVebSoqG1mzXrl0QQuAf//hHnec89dRT6NChA6c6qKChdXvuuecghKj3F+ZevXohNDQU586d8+k2t3b11ezFF1+EEALffvttrcfabDYIITB58uSa2zIzMyGEwGeffVbntUeMGIGAgAAcPXpUvR1opRpat0uxmaA+X9fM48cff2yU4zU2E1q4LVu2QAiB//73v1d83MCBAxEQEICSkpJ6709JSUFAQADy8/MBgM0EFfmiZhEREQgKCkK7du0ghEB4eDiGDRuG/fv3q7XZrV5D66bVaiGEgNFoxMiRIxEUFAQhBG6++WZMnDgRVVVVam5+q+Sr78eLZWdnQwiB1157zVebSRdpaM0qKipw2223ISgoCAaDAQcPHkRJSQmmT5+ONm3aYOrUqWpufqvV0LoNGTIEQoh6p+n17dsXQggUFhb6dJtbu/pq5jnTOWTIENhsNpSVlSE7OxuRkZF1ppvMmDEDQgikp6fXeW2dTnfVabV0fRpat0uxmaA+X9fMY8+ePY0yfY/NhBasqqoKDz/8MAIDA1FcXHzZx5WUlCAgIACPPfZYvfefOnUK3bp1w3vvvVdzG5sJ6vBVzZ5++mlMnjwZKSkpWL16NcaMGYN27drhxhtvxJdffqnW5rdavqjbBx98ACEEbrrpJvTq1QsGgwGrVq3C008/DSEE3nzzTTV3odXx1WftUq+99hqEEDCbzb7aVFL4qmY7d+5EZGRkrcX+OnTogKSkJLU2vVXzRd0+/PBDCCGwYcOGWrcfPXq0pvG6bt06n297a3W5ml24cAGffPJJzdpZnvzhD3/A119/Xes13n//fQghsGfPnjqvv3nzZgghkJCQoPq+tCa+qNul2ExQlxo183jppZcghEBmZqZamw+AzYQWzfNFfukcw0tFR0dDCIGlS5fWe/8777yDm2++udaQXTYT1OGrmtXH88P7z3/+c0M3ky7hi7q99dZbEEKgY8eOtYa1VVdXY8CAARCCV+LwJTU+az/88AOCg4Nx5513+moz6SK+qtn+/fvx8ssvY9SoUUhJScHixYsxaNAgtG3bFkuWLFFj01s1X9StpKQEISEh6Nq1K1atWoVDhw7BbDajX79+NSPwvPl5SFd2pZrFx8djyJAhSEhIwOeff47PPvsM4eHh6N+/f6354J453/WNiPRMgZgzZ46q+9Ha+KJul2IzQV1q1AwA5s6dCyEE3nnnHbU2vQabCS3UJ598ck1voqqqKnTr1g2dO3eud76hZ3GjZcuW1bqdzQTf81XNrqRfv35o3779NS0iR9fGV3Xz/EB55ZVX6ty3aNEiCCGg0Wh8tt2tmVqftYSEBAghMGPGDF9tKil8VbOjR4/ixhtvrLPgmOeyx2FhYTh58qRPt7018+VnLTs7G3fccUets3R/+9vfMGrUKA6Z96Er1cyzmvylQ6y3bt0KIQQmTJhQcxtHJjQuX9XtUmwmqEetmhkMBgQEBOCZZ55plDWA2ExogSZOnAghBN54442rLry3ceNGCCEwevToeu/v06cP+vbti5KSkloRQmDAgAEoKSmpszgIec+XNbsSz4Iu/GXZN3xZt5kzZ1521V3PD49p06b5ZLtbMzU/a5GRkQgMDORl6nzMlzWbNGkShBCw2+117vOcydm2bZtPtru1U+OzVl1djd27dyMnJwelpaUAfhnKyyl8DXelmlVUVKB9+/Z49tln631ueHg4HnrooZq/c82ExuPLul2KzQR1qFWzpKQkBAQEYMiQIfj55599vt31YTOhhfG8OUeMGIELFy5c9fGeFZJdLle993fq1KnWWYD6wksyNYyva3Yl9913H4KCgriYnw/4um5msxlCCAwdOrTOfXq9vmZxRrp+an7WXC4XhBD4y1/+4otNJYWva/bOO+9ACAGbzVbnPk9Db9OmTQ3e7tausX6u/fzzz+jSpQunFvnA1Wp27NgxCCHw1FNP1bmvuroaISEh6NevX81tnqkMkyZNqvP4kSNHIiAgAGVlZb7diVbI13W7FJsJvqdWzTyNhD/+8Y+NenUbNhNaEM8Zl+HDh1/TD+/jx48jMDAQkZGRl31MamoqUlJS6kQIgb59+yIlJaXeMzx0bdSo2eVGHSxfvhxCCLzwwgvXvb3kpkbdqqqqcPvttyM4OLjmjBsAVFZWol+/fggMDKx1O3lHjZpdbPTo0RBCYOPGjQ3dVFKoUbOFCxdCCIFRo0bVur2iogJ9+vRB27ZtObKkgdT+rF3MszBjcnLydWwpeVxLzS5cuIAuXbogNDQUBw4cqHXfqlWrIETtS65WVlbi1ltvRY8ePWpdhePw4cMIDQ3FoEGD1NmZVkSNul2KzQTfUqtmycnJaNOmDZ544gmUl5ertv31YTOhhYiPj4cQAj179sTixYuxdOnSWqlvmJnnLExiYqLX/x7XTGg4tWq2YMEC3HvvvRg7dizi4+MRGxuLYcOGISAgAN26dcPBgwdV3KuWT83PWlpaGgIDA9G9e3dMnToVMTExePDBByHEtV1TmOqn9vfjuXPn0LlzZ3Tv3p2jfnxErZqdPn0at99+e81itPHx8Zg9ezb69OkDIQTGjRun5m61eGp+1iIjIzF27FhotVrExMTg8ccfb7QFxloyb2oWFxcHIdxXHfr000+h0+kwatQotGvXDl26dMGhQ4dqvfbGjRvRpk0b9O7dG3FxcZg7dy4iIiIQFhaG7du3N/autihq123KlCmYMmUKbrvtNgQGBtb8fcqUKY29qy2GWjVLTU1FmzZt0LlzZ+j1+jqve+lVcHyNzYQWYsSIEVecijBw4MA6z7nrrrsQHBx81RVB68NmQsOpVTNJkvDcc8+hZ8+eCA4ORocOHXDXXXfh3//+N7755hsV96h1UPuzJkkSnnzySXTs2BFBQUF44IEHuEp5A6ldM8+on//85z8qbH3rpGbNTp48iejoaNx7770IDQ1FSEgI+vfvD71ef9W5/XRlatZt9OjR6NWrF4KDgxEeHo4BAwZgxYoVKu1J6+FtzdLT0zF48GDccsstaNeuHbp164bhw4fXOYN68eMfeeQRhISEoGPHjnj66achy3Ij7FnLpmbdrvbadH3Uqpln2sTlEhERoep+8R1BRERERERERF5hM4GIiIiIiIiIvMJmAhERERERERF5hc0EIiIiIiIiIvIKmwlERERERERE5BU2E4iIiIiIiIjIK2wmEBEREREREZFX2EwgIiIiIiIiIq+wmUBERERERET/IdszAAAAr0lEQVREXmEzgYiIiIiIiIi8wmYCEREREREREXmFzQQiIiIiIiIi8gqbCURERERERETkFTYTiIiIiIiIiMgrbCYQERERERERkVfYTCAiIiIiIiIir7CZQEREREREREReYTOBiIiIiIiIiLzCZgIREREREREReYXNBCIiIiIiIiLyCpsJREREREREROQVNhOIiIiIiIiIyCtsJhARERERERGRV9hMICIiIiIiIiKv/H8UDXSbHvppIQAAAABJRU5ErkJggg==\" width=\"799.6333333333333\">","text/plain":"<IPython.core.display.HTML object>"},"metadata":{}}]},{"cell_type":"markdown","source":"# Example 2: free-based porphyrin\n\n### Input file\n\n```\n@jobs\ntask: response\n@end\n\n@method settings\nxcfun: b3lyp\nbasis: def2-svp\n@end\n\n@response\nproperty: absorption (cpp)\nfrequencies: 10.01 - 10.17 (0.0016)\n@end\n\n@molecule\ncharge: 0\nmultiplicity: 1\nxyz:\nH 3.209599995 3.172309777 0.000000000\nN 0.000000000 -2.113600613 0.000000000\nN 2.031813914 0.000000000 0.000000000\nN 0.000000000 2.113600613 0.000000000\nN -2.031813914 0.000000000 0.000000000\nC 1.126850920 -2.888627221 0.000000000\nC -1.126850920 -2.888627221 0.000000000\nC 1.126850920 2.888627221 0.000000000\nC -1.126850920 2.888627221 0.000000000\nC 2.850160984 -1.083939750 0.000000000\nC 2.850160984 1.083939750 0.000000000\nC -2.850160984 -1.083939750 0.000000000\nC -2.850160984 1.083939750 0.000000000\nC 0.683827200 -4.249372023 0.000000000\nC -0.683827200 -4.249372023 0.000000000\nC 0.683827200 4.249372023 0.000000000\nC -0.683827200 4.249372023 0.000000000\nC 4.248378966 -0.675836785 0.000000000\nC 4.248378966 0.675836785 0.000000000\nC -4.248378966 -0.675836785 0.000000000\nC -4.248378966 0.675836785 0.000000000\nC 2.433989580 -2.416542873 0.000000000\nC -2.433989580 -2.416542873 0.000000000\nC -2.433989580 2.416542873 0.000000000\nC 2.433989580 2.416542873 0.000000000\nH 1.341416542 -5.103998738 0.000000000\nH -1.341416542 -5.103998738 0.000000000\nH 1.341416542 5.103998738 0.000000000\nH -1.341416542 5.103998738 0.000000000\nH 5.096138011 -1.344322017 0.000000000\nH 5.096138011 1.344322017 0.000000000\nH -5.096138011 -1.344322017 0.000000000\nH -5.096138011 1.344322017 0.000000000\nH 3.209599995 -3.172309777 0.000000000\nH -3.209599995 -3.172309777 0.000000000\nH -3.209599995 3.172309777 0.000000000\nH 0.000000000 -1.102285542 0.000000000\nH 0.000000000 1.102285542 0.000000000\n@end\n```","metadata":{}},{"cell_type":"markdown","source":"## Extract data\nNote: put imaginary part of solution vectors in individual .npy-objects due to size restrictions","metadata":{}},{"cell_type":"code","source":"data = np.load('porphyrin.npy', allow_pickle=True)\nscf_E = data[0][1]; mo_E  = data[1][1]; nocc  = data[2][1]; nvirt = data[3][1]; freqs = data[4][1]\naxx   = data[5][1]; ayy   = data[6][1]; azz   = data[7][1]\ndata = np.load('porphyrin_xsol.npy', allow_pickle=True); x_solution = data[0][1]\ndata = np.load('porphyrin_ysol.npy', allow_pickle=True); y_solution = data[0][1]\ndata = np.load('porphyrin_zsol.npy', allow_pickle=True); z_solution = data[0][1]\nprint('SCF energy:',scf_E)\nprint('Occupied MO energies:',mo_E[:nocc])","metadata":{"trusted":true},"execution_count":6,"outputs":[{"name":"stdout","text":"SCF energy: -988.846789451356\nOccupied MO energies: [-14.36571353 -14.36567718 -14.29726407 -14.29724436 -10.2346608\n -10.23465985 -10.23461365 -10.23461259 -10.21399217 -10.21398711\n -10.21395811 -10.2139439  -10.19982834 -10.19979859 -10.19978915\n -10.1997608  -10.19891496 -10.19891005 -10.19840644 -10.19840466\n -10.18305353 -10.18305317 -10.18245953 -10.18245919  -0.98593338\n  -0.98457207  -0.93826255  -0.93595213  -0.81473496  -0.79447264\n  -0.78942936  -0.78830085  -0.78197827  -0.75126257  -0.75105253\n  -0.73975876  -0.71637088  -0.660265    -0.65228424  -0.60211999\n  -0.5985902   -0.59482371  -0.58763362  -0.57975414  -0.57432231\n  -0.55748809  -0.54864912  -0.51846492  -0.50900355  -0.50293899\n  -0.49720082  -0.46345696  -0.45016034  -0.44840504  -0.44422393\n  -0.44051952  -0.43581741  -0.43245719  -0.43082684  -0.42195254\n  -0.41796924  -0.40622335  -0.40070568  -0.39385577  -0.3876026\n  -0.38439895  -0.38397333  -0.37826254  -0.37120953  -0.37070973\n  -0.33168562  -0.29310501  -0.28438     -0.27422833  -0.27235811\n  -0.26953031  -0.26930736  -0.24728346  -0.24231596  -0.20422172\n  -0.19805877]\n","output_type":"stream"}]},{"cell_type":"markdown","source":"## Extract spectra (isotropic and for each Cartesian component)\nPrinting isotropic results - compare to output-file from your calculation","metadata":{}},{"cell_type":"code","source":"n_freq = len(freqs)\nsigma,sxx,syy,szz = np.zeros(n_freq),np.zeros(n_freq),np.zeros(n_freq),np.zeros(n_freq)\nprint('Freq. [au]  Freq [eV]  Sigma(w) [au]')\nindx = 0\nfor w in freqs:\n    axx_tmp = axx[indx]; ayy_tmp = ayy[indx]; azz_tmp = azz[indx]\n    a_bar = (axx_tmp + ayy_tmp + azz_tmp) / 3.0\n    sigma[indx] = (4.0 * np.pi * w * a_bar   / 137.035999)\n    sxx[indx]   = (4.0 * np.pi * w * axx_tmp / 137.035999)\n    syy[indx]   = (4.0 * np.pi * w * ayy_tmp / 137.035999)\n    szz[indx]   = (4.0 * np.pi * w * azz_tmp / 137.035999)\n    print(' {0:.4f}    {1:.4f}    {2:.8f}'.format(w,w*eV, sigma[indx]))\n    indx += 1","metadata":{"scrolled":true,"trusted":true},"execution_count":7,"outputs":[{"name":"stdout","text":"Freq. [au]  Freq [eV]  Sigma(w) [au]\n 10.0100    272.3861    0.03394428\n 10.0116    272.4297    0.03562486\n 10.0132    272.4732    0.03747407\n 10.0148    272.5167    0.03951717\n 10.0164    272.5603    0.04178452\n 10.0180    272.6038    0.04431293\n 10.0196    272.6473    0.04714739\n 10.0212    272.6909    0.05034341\n 10.0228    272.7344    0.05397024\n 10.0244    272.7780    0.05811522\n 10.0260    272.8215    0.06288996\n 10.0276    272.8650    0.06843910\n 10.0292    272.9086    0.07495301\n 10.0308    272.9521    0.08268675\n 10.0324    272.9956    0.09198883\n 10.0340    273.0392    0.10334595\n 10.0356    273.0827    0.11745468\n 10.0372    273.1263    0.13533906\n 10.0388    273.1698    0.15854834\n 10.0404    273.2133    0.18949454\n 10.0420    273.2569    0.23202214\n 10.0436    273.3004    0.29228766\n 10.0452    273.3440    0.37962676\n 10.0468    273.3875    0.50480366\n 10.0484    273.4310    0.66539440\n 10.0500    273.4746    0.80845439\n 10.0516    273.5181    0.84833233\n 10.0532    273.5616    0.80851987\n 10.0548    273.6052    0.79498239\n 10.0564    273.6487    0.86859051\n 10.0580    273.6923    1.04698557\n 10.0596    273.7358    1.30243815\n 10.0612    273.7793    1.51200740\n 10.0628    273.8229    1.55629266\n 10.0644    273.8664    1.48579052\n 10.0660    273.9100    1.32771072\n 10.0676    273.9535    1.07834715\n 10.0692    273.9970    0.83005739\n 10.0708    274.0406    0.64807414\n 10.0724    274.0841    0.53535474\n 10.0740    274.1276    0.47806308\n 10.0756    274.1712    0.46719987\n 10.0772    274.2147    0.50126018\n 10.0788    274.2583    0.57856753\n 10.0804    274.3018    0.67071288\n 10.0820    274.3453    0.69968785\n 10.0836    274.3889    0.62642106\n 10.0852    274.4324    0.52020752\n 10.0868    274.4759    0.44240037\n 10.0884    274.5195    0.39794455\n 10.0900    274.5630    0.36375611\n 10.0916    274.6066    0.32576046\n 10.0932    274.6501    0.29460688\n 10.0948    274.6936    0.28111160\n 10.0964    274.7372    0.28865446\n 10.0980    274.7807    0.32011876\n 10.0996    274.8243    0.38055404\n 10.1012    274.8678    0.47085160\n 10.1028    274.9113    0.56511202\n 10.1044    274.9549    0.60387977\n 10.1060    274.9984    0.57775778\n 10.1076    275.0419    0.54179941\n 10.1092    275.0855    0.50902957\n 10.1108    275.1290    0.46072356\n 10.1124    275.1726    0.41406608\n 10.1140    275.2161    0.39737067\n 10.1156    275.2596    0.42064065\n 10.1172    275.3032    0.47633474\n 10.1188    275.3467    0.52401428\n 10.1204    275.3903    0.50455379\n 10.1220    275.4338    0.42815455\n 10.1236    275.4773    0.35271129\n 10.1252    275.5209    0.30431281\n 10.1268    275.5644    0.28392904\n 10.1284    275.6079    0.28909455\n 10.1300    275.6515    0.32090161\n 10.1316    275.6950    0.38350083\n 10.1332    275.7386    0.47467127\n 10.1348    275.7821    0.56191794\n 10.1364    275.8256    0.59002090\n 10.1380    275.8692    0.55810774\n 10.1396    275.9127    0.49307441\n 10.1412    275.9562    0.40433375\n 10.1428    275.9998    0.31847287\n 10.1444    276.0433    0.25453593\n 10.1460    276.0869    0.21242885\n 10.1476    276.1304    0.18658919\n 10.1492    276.1739    0.17259965\n 10.1508    276.2175    0.16755450\n 10.1524    276.2610    0.16772353\n 10.1540    276.3046    0.16604602\n 10.1556    276.3481    0.15811415\n 10.1572    276.3916    0.14851906\n 10.1588    276.4352    0.14212742\n 10.1604    276.4787    0.13990245\n 10.1620    276.5222    0.14137966\n 10.1636    276.5658    0.14615958\n 10.1652    276.6093    0.15422093\n 10.1668    276.6529    0.16595705\n 10.1684    276.6964    0.18223666\n 10.1700    276.7399    0.20455885\n","output_type":"stream"}]},{"cell_type":"markdown","source":"## Compare to experiment\nPlotting above results as well as line spectrum constructed with a cubic spline.\\\nResults shifted to align with first experimental feature.","metadata":{}},{"cell_type":"code","source":"data = np.loadtxt('expt_h2p_25'); E,I = [],[]\nfor i in np.arange(len(data)): E.append(data[i][0]); I.append(data[i][1])\nx = np.arange(min(freqs*eV),max(freqs*eV),0.01)\ny = interp1d(freqs*eV, sigma, kind='cubic')\nxmin,xmax = 283,287\nplt.figure(figsize=(8,5))\nplt.subplot(211); plt.title('B3LYP/def2-SVP')\nshft = 273.7-284.1\nplt.plot(x-shft,y(x))\nplt.plot(freqs*eV-shft,sigma,'x')\nplt.xlim((xmin,xmax))\nplt.subplot(212); plt.title('Experiment')\nplt.plot(E,I); plt.xlim((xmin,xmax))\nplt.tight_layout(); plt.show()","metadata":{"trusted":true},"execution_count":8,"outputs":[{"output_type":"display_data","data":{"text/plain":"<Figure size 576x360 with 2 Axes>","image/png":"iVBORw0KGgoAAAANSUhEUgAAAjgAAAFgCAYAAAC2QAPxAAAAOXRFWHRTb2Z0d2FyZQBNYXRwbG90bGliIHZlcnNpb24zLjQuMSwgaHR0cHM6Ly9tYXRwbG90bGliLm9yZy/Z1A+gAAAACXBIWXMAAAsTAAALEwEAmpwYAABm2ElEQVR4nO3dd3hUxfrA8e+bThJ6AoHQQq+CEppK6FJsoIJKxwLYwH71+rPe673WqygoItKlCijYQHoRhNB7DZCEFkogve38/tgFlphAAptsdvN+nmcf9pwze3bO7JB9d2bOjBhjUEoppZRyJx7OzoBSSimllKNpgKOUUkopt6MBjlJKKaXcjgY4SimllHI7GuAopZRSyu1ogKOUUkopt6MBjlJKKaXcjgY4SqlCJSLtRSQmj2lFRCaKyHkR2VDQeVNKuQ8NcJRyEyJyRERSRCTRFhD8IiJVbceeF5HDInJRRI6LyGci4mX3WiMitW3PRURWichb2c4/SEQOiYi/iEwSkXTbe50TkT9EpH629ItF5K6bvKw7gS5AFWNMSxFpbXuvcyISJyJzRKTSdcrlnyISZctrjIjMsu3/RkSm5JD+FhFJE5FyIvKOiGTYXhsvIn+KSJubvCalVCHQAEcp93KvMSYQqAScAr607V8I3GaMKQU0BpoCI3I6gbFOb/448KKINAIQkWDgE+AJY0yyLelHtveqApwGJl06h4gEAM2BlTd5PdWBI8aYJNt2WWAcUMN2LAGYmNuLRWQQMADobMtrOLDUdngS8IAtr/YGAj8bY87ZtmfZXhsMrAHmiYjc5HUppQqYBjhKuSFjTCrwA9DQtn3IGBNvOyyABah9jdcfAN4HvhMRD+ALYK4xZnkOaZOB6VgDp0s6AWuNMWkiUsLW4nNeRHYDLexfLyKVRWSurUUmSkRG2PY/DowH2thaUN41xvxmjJljjLloe9/RwB3XKIoWwCJjzCFbXk8aY8bZnq8DYoEH7fLiCfQFJudwnRm2/SFA+Wu8p1KqCPC6fhKllKsREX/gYWC93b6+wFigJHAGeOk6p/kf8BDWQCkcaJTLewUC/YAtdrt7AL/Ynr8N1LI9AoDf7F7rgbV16SfgUaytQUtEZJ8x5jsRycLaanRnLnmMAHZd4xrWA1+ISCywHNhijMmyOz4Fa4vNpa6qzoC3fR7t8uoLDAZijDFnrvGeSqkiQFtwlHIvP4pIPHAR69iVjy8dMMZMt3VR1cUa6Jy61olsgcBjQC/gOWNMQrYkL9ve6yAQiPXL/5LuwK+2532A940x54wx0Vhbgy5pAQQbY94zxqQbYw4D3wKPXO9CReQW4C3glWtcwzTgOaAr1u6y0yLyml2SqUA7Eali2x4ITLe11lzSx3ad0Vi73XpeL29KKefTAEcp99LTGFMG8AWeBVaKSIh9Alv30y7gq+udzBhzqXUkp1aST4wxZYwxIcaY+y51A4lIE+CiLZgBqIw1OLjkqN3z6kBl2wDeeFsg8U+g4rXyZRsQ/Rsw0hiz2ravmq0rK1FEEu2u4XtjTGegDDAceE9EutqOHQNWAf1tLVE9+Xv31GzbdVYwxnQ0xmy6Vt6UUkWDBjhKuSFjTJYxZh6QhfVOpOy8sHYZFQT77imAE0BVu+1qds+jgShbAHHpUdIY0yO3k4tIdWAJ8C9jzNRL+40xx4wxgZce2V9njMkwxswBtnP1eKHJWFtuHrTlZXPeL1UpVVRpgKOUG7Ld6n0/1ruO9ojIEyJSwXasIfA6V+4musRHRPzsHp43+PZ3c6V7CmA28LqIlLV1BT1nd2wDcFFE/mEbjOwpIo1F5KqByHbXFQosA8YYY8ZeLyMiMlhE7haRkiLiISLdsY4l+ssu2VysAdi75DC4WCnlmjTAUcq9LLR1z1zEehfUIFs30x3ADhFJwhp8/Iq1K8jeLiDF7jEkv28uIqWBBsCfdrvfxdotFQUsxjruBbg8zudeoJnt+Bmsd06VzuUtngBqAm/n1B2Vg4tYr/MYEA98BDxljFljl4ckrgQ53+fxUpVSRZxYp7xQSqmbJyJ9gIeMMX2cnRelVPGmLThKKUeKBz5zdiaUUkpbcJRSSinldrQFRymllFJux2kzGQcFBZkaNWo46+2VUkopVURs2rTpjDEm2JHndFqAU6NGDSIjI5319koppZQqIkTk6PVT5Y92USmllFLK7WiAo5RSSim3owGOcn9rPoeoVVfvi1pl3a+UUsotaYCj3N75so1JmzGQVYvnEn0u2RrczBkMobc5O2tKKaUKiNMGGStV0IwxfLXiEF8uy+DWrKcZvXYk01Yt5DGfZaT2/I7gsAhnZ1EppVQB0RYc5V7suqM++2M/Hy/ax7CqsXx6hwUT/hgjveYzNbMzXX+CrdHxTs2qUkqpgnPdAEdEJojIaRHZmcvx9iJyQUS22h5vOT6bSuVR6G0wZzCRK37ii2UHeb1+HM/H/4fKZQMJ2jMNIl5lmP9y2nrtoe+369kZe8HZOVZKKVUA8tKCMwnodp00q40xzWyP924+W0rdoLAI0ntNoPaKZ/l3qZ8Yevo95M4XYc3/oPck6PgGng9P5jOPz/mP13i+mjiBUxdTr7xeBx8rpZRbuG6AY4xZBZwrhLwo5RCTT1RjcmYn+qfPQsIfB0umNbi5NOYmLAKPPpNoXzeYf2d8yvgpk7FYjA4+VkopN+KoMThtRGSbiPwmIo1ySyQiQ0UkUkQi4+LiHPTWSl2RmWVh2+oFDPFZBhGvQuR31oAl+4DisAjKPPI1m1t9xvC4f7F96qvW4MY+EFJKKeWyHBHgbAaqG2OaAl8CP+aW0BgzzhgTbowJDw526JITSgGwacVPvJv+CfvafgEd37AGLHMG/30eHJtO3R9iden7aBY1jqRbBmlwo5RSbuKmAxxjzEVjTKLt+a+At4gE3XTOlLoBB7eu5h3fV7it3f3WHWER1iAndnOO6eXIau5N/43RWQ9gNn6XayCklFLKtdx0gCMiISIituctbec8e7PnVSq/YuNTeCOuE3Vb9cDTQ64cCIuAO5//+wtsY248H55M4u3/4MmUZ8mcNUiDHKWUcgN5uU18BrAOqCciMSLyuIgMF5HhtiQPATtFZBvwBfCIMcYUXJaVytnCbccBuL9ZaN5eELv58pib4e1qstO7KaPK/TPX1h6llFKu47ozGRtjHr3O8dHAaIflSKkbtGDrcZpVLUO18v55e4Fdq04Zfx8ebxvG50sy6X5PWxoWTBaVUkoVEp3JWLmFQ3GJ7D5xkfuaVr7hcwy5PYwS3p58tybKgTlTSinlDBrgKLfwx+5TAHRtHHLD5yjt702f8Cos2BbLafvJ/5RSSrkcDXCUW1i86ySNQ0sRWqbETZ1nyB1hZFoM3/91zEE5U0op5Qwa4CiXF5eQxpboeLo0uPHWm0tqBAVwZ+0gftgUY53dWCmllEvSAEe5vGV7T2EMdGlY0SHne73UIqpdjGTtoTNXduoaVUop5VI0wFEub+X+OEJK+dGgUkmHnK92swjG+HzBllULrTt0jSqllHI5GuAo17Tmc4haRWaWhdUHzhBRNwg5stohrSw+ddozr9b79D/2Fhl//EvXqFJKKRekAY5yTaG3wZzBHNr4GwmpmfQqe9ihrSyNbr+HqVmd8V77CYQ/rsGNUkq5GA1wlGuyrTFVdcnTvOg1h1aRLzm0laUlOxnotZRfyg6wrkiuyzcopZRL0QBHua6wCBb6dGeE13w8WjiwlSVqFZ5zh/Bj7X/zYtzdpPb87porkiullCp6NMBRLithzzI6J/3M+iqPO7aVxbZGVb3Wd5OWaWF1ZsNrrkiulFKq6NEAR7mmqFX4zH+MZzNG4HPXm9YAxFGtLHc+D2ERhNcoR6CvF8v2nsp9RXKllFJFkgY4yjXFbmZi5bfZ7duMplXKXB6T48hWFh8vD9rWCWL53jiM0Un/lFLKlWiAo1ySuWMkE49X5c7aQXh6iHVnAbSydKhfgZMXU9l94qJDz6uUUqpgaYCjXNK+UwmcuphGu7rBBfo+HepVAGD53tMF+j5KKaUcSwMc5ZJW7Y8DoG3doAJ9n+CSvjStUpplGuAopZRL0QBHuaSV++OoWzGQSqVvbvXwvOhQvwJbouM5m5hW4O+llFLKMTTAUS4nOT2TjVHnC7x76pKO9StgjDWoUkop5Ro0wFEu56/D50jPshBRSAFO48qlCS7py/J9GuAopZSr0ABHuZyV++Pw8/agRY1yhfJ+Hh5C2zpBrDkQR5ZFbxdXSilXoAGOcjmr9sfRumZ5/Lw9C+0929UN5nxyBjtjLxTaeyqllLpxGuAolxJ9LpnDZ5KIqFM43VOX3FnberfW6gPaTaWUUq5AAxzlUlbZAox29Qo3wCkf6Evj0FKs2n+mUN9XKaXUjdEAR7mU5XtPU6VsCWoGBRT6e0fUCWbzsfMkpGYU+nsrpZTKHw1wlMtISc9i9YEzdG5QEREp3Ddf8zn3lDpIpsXw56Gz1n1Rq2DN54WbD6WUUnmiAY5yGWsOniEt00KXhhUL/81Db6PBmhF08NljHYcTtcq6ennobYWfF6WUUtelAY4q2tZ8bg0mgCW7T1HSz4tWsqvwW07CIpDek/jC6wtq7/zCGtz0nmRd4FMppVSRowGOKtpCb4M5g7EcWsnSvad4smosXnOHOKflJCyCwzUeZnDmbOIbDdDgRimlijANcFTRFhYBvSeRNWcwA1K/Z9ip95zXchK1isbHf2BUZi/8tk6+3LKklFKq6NEARxV9YRFsLN+TkV7zMc0fc1pww5zBePSZxA+lBvJl+Tes3VQa5CilVJF03QBHRCaIyGkR2ZnLcRGRL0TkoIhsFxEddakcK2oVDY//wLySffHbNsk5QUXsZug9CanZjog6wUw6XpWMByZa9yullCpy8tKCMwnodo3j3YE6tsdQ4Oubz5ZSNlGryJo1iKfSnuN8q1et3VPOaDm58/nLLUdt6wSTlJ7FZo/G1v1KKaWKnOsGOMaYVcC5ayS5H5hirNYDZUSkkqMyqIq52M38WPs/rDeN6NEk5PKYHGe2nNxeuzyeHnJ5VmWllFJFjyPG4IQC0XbbMbZ9fyMiQ0UkUkQi4+L0y0Fdn7ljJGOOVqJVWDkqlS5h3RkW4dSWk1J+3txWrYwu26CUUkWYIwKcnKaUNTklNMaMM8aEG2PCg4MLdy0h5Zp2xl7kcFwS9zfLMWZ2mrZ1gtl5/AJnE9OcnRWllFI5cESAEwNUtduuAhx3wHmV4odN0fh4etCjcdHq9YyoG4wx1tmVlVJKFT2OCHAWAANtd1O1Bi4YY0444LyqmEtJz2Lelli6NwmhtL+3s7NzlSahpSnj763dVEopVUR5XS+BiMwA2gNBIhIDvA14AxhjxgK/Aj2Ag0AyMKSgMquKl5+3HychNZO+Las5Oyt/4+kh3Fk7iJX747BYDB4ehbz4p1JKqWu6boBjjHn0OscN8IzDcqQUYIxh2vqj1AwOoGVYOWdnJ0edG1Tk5+0n2BYTz63Vyjo7O0oppezoTMaqSFp/+BzbYi7w2B1hiBTN1pH29YLx9BCW7Dnl7KwopZTKRgMcVXTYrRz+zapDBAX60Kd8VOGvHJ5HZfx9aFGjLEv3nHZ2VpRSSmWjAY4qOmwrhx/46xdW7IvjjYZn8Jn/mHNWDs+jzg0qsvdkAtHnkp2dFaWUUnY0wFGOYdf6clnUqvy1voRFYB6aSMXfn+KNEvPoeeAN560cnkddGlYE0G4qpZQqYjTAUY4RehtmzmDSD6ywbttW385v68sviXWYmNGRJ80PSIvHi3RwA1B9z7c8VO7w1QFOfgM7pZRSDqcBjrppi3edpM8ib/rGDydhWn++/+9QUqYPIKXnd/kKUOIS0ljw4ywGey/F0vYViPzOOSuH50fobbyX/gkStZoLKRk3HNgppZRyrOveJq7UVdZ8bv3yDosgy2J486edRG38jU6BMVyIeJoDsSfpF/0dozJ7ITPnEn57PG069bxyJ1TUKutCmdnWksrIsvDtlEl8kPUpCfePp/Rt3aBmhDVYKMrdVGERRHf+ilG/DePkj2cpHT27aOdXKaWKCW3BUfljGwhsDq/kLVtw853/GB5/+EFerXea1md/hIhXeTpwJf5+PtRb/Rwfjf2WmPPJV1o3zkdd1TKTaQtuWp/8nm1tRlHltm7WA0Vg5fC8qNOyBz96dqPevq8hvOh3qymlVHEg1nn6Cl94eLiJjIx0ynurmxS1itTpA/kmpT1P+i3Hv99U63771paoVZg5g/krdDB1949jprmLIb5LyXpwIoG+XpfTHisVztQZUxke9y9WNPmYBx+65rySRVPUKpK/H8CEtI48HbgSjz6TNMhRSql8EJFNxphwR55TW3BUvsWUCWdiekdGes2nRJsnrV/msZuv7poJi0B6T6J19VJ4tX6Cpz3mMi6lA82npdF/qS9fV3iTi1P789Pnz/BU3L/Y3nqUywY3zBnMqa5j+STjIZY1+dAavBX1sUNKKeXmNMBR+TZr9vc8zGIutHwB2TTB+mV+5/N/b7UIi4DQ2yi1YwpEvMozgSt5vUEc55LSmXKiGr/4duc5z3n4tH6SDt0fdMq13DRbYFcjvBu1KwQyLrqKS3SrKaWUu9MAR+XLvnW/MPj4u6xs+jGle7xj/TLPrcXi0pib3pOg4xt4PTyZwbHv8Ot9hnWPePOo/AERrxK4Y7LrtnjYAjsRoWezymyIOkds2RZ/G0StlFKqcGmAo/LMGMOGtUv4P6+X6HpPb+vOaw0EzqHbit6TYMfcqwKfawZJLuS+pqEALNh63Mk5UUoppQGOyrPNx87z5pnOtO7UC38fuxkGwiJybrHIrduqXFjOgY+Ld+tUK+/PbdXK8NPWWGdnRSmlij0NcFSejV8dRekS3vQOr3JzJ8ot8HGDbp1et1Vh78kEtsfEOzsruXPEshpKKVXEaYCj8uTY2WQW7TpJv1bVrm69UVfp2awy/j6efL/+mLOzkjvbXEaXgxydfVkp5YY0wFF5MmFtFJ4ewqDbazg7K0VaST9v7m9WmZ+2xVqXbihiTl9MZdLxqkys/DYp0wdw7ue3i/5s0UopdQM0wFG5s3VlXEjJYHZkNPfeUpmKZzdoV8Z19GtVndQMC3Mio52bEbuuqCyL4fMl+3n549Gc+PVDPj0QwriUDpSL/Jw1Ze4ns9qdzs2rUko5mAY4Kne2royVi+aSnJ7Fc7VOaFdGHjSOmshjlaOZuPYImVkW605njHGxfX5p+1fw+OSN/LXsR8b4fMHAh3qxY5Afz5VcxdIKg2gQO4dR478jLTOrcPOnlFIFSAMclbuwCDIfnEjbra/wv+CfCVv2jHZl5EXobbyW9AHVLkby686TzhvjEhZB+gMTSJs5kNsOfcXEgK8o2X8aoWVKID8MwaPPJDo9/QUbw//H4OPv8u3kyThr6RallHI0DXDUNf2SUJspmZ14IGG6LiSZV2ERePWZzNe+X5Lw6zsYJ41xMcbw2qYyTEzvyAiv+fjlsqxGt3v7cKJSZ8pGLeTrlYeunEDvrFJKuTANcFSujDGsX/Yjg7yXYtq+ApHfufxkfIXFo1Y7TtXtR7+0WRyq9rBTAsPv1kRxYttinvRbDhGvXvn8crhNv9FdQ7jPdxN//jGfrdHxemeVUsrlaYCjcrVn3S+8fOG/RLb4DOn0f24z43ChiFpF3ejZTPHpQ9C+aWQdWlmob7/p6HlW/D6XcX6jKdF3ynVnjJaa7ZDek/jS+wu2TXkFM3uwdkfmROcQUsplaICjcrV74wpe93yJO7v0su5wkxmHC5yt9UN6T6L8Pe/xVNpzZMwaVGiBYXxyOiNmbOEO/2NIn0lIzXbWA9f5/ALrdyT5lkEMypjNksB7NLjJic4h5No0QC1WNMBROTocl8grJztQv83d+Hl7XjngJjMOFyi7MS49moSQXvVORmaOJO3oxoJ7T9sfbmMMr/ywndMJqXTp3J3AM9uvTnetzy9qFaEHp7OuyuPcdnoeG5f/WHD5dUGx8Sl8sr8ir3u+xPnJ/ZjynydJnNafmJDOWCzZBmfrl2bRpAFqsaIBjsrRhLVReHt6MKB1dWdnxfXYjXEREd68pyGLU+ry34vdCu49bX+4f14wiz92n2JUq0Rqr3w273+47VZ+Dx/yCR+XfJ3aK5/j4p5lBZfnoszul77FYvhqxUFe/3QMmas/40jJ5myu0IuB6bOZntWZV/bW5uK0/qz9Yx5ZFqNfmkVFttaaY2eTmbnhGIstLYmf3I8ZHwwjcVp/trT6nKyYTdqy44Y0wFF/cz4pnR82xdCrWSjBJX2dnR2X16xqGQa2rs7kdUfYdPR8wbxJWAS77viC2ze/zFeVf6P73tfyN4bGrtXJ29ODQf0G8FzmCJYt/b1g8lvU2QLG9AMreOr7TaxePI8x3l/weJ8HmdElnU6JP0PEqzzpv4JnO9bhff9Xqb9mBN9/MJS0GQOxPDhRu/iczfYZpu5fzts/7eS1T0dz1+7XWO0Xwbpy9/No6kymZXWm12+evLLWk/QZA7Vlx81ogKP+Zur6o6RmWHjszjBnZ8VtvNy1Hi8H/M7UGVNJSLVbwsFBvxJPXkhl0HJffvHtTo9zU5H83tKf7c6qBpVK0apDT56PacevO07cdP5cjm0OodQZA2m0bzQTAr4isP9Ua8B/6bb/jm8gvSdxx+aX+PCBWzjXYAAD02czNrk9d//swYF5/8Yczja4XFsFCk9YBGd7fEPqjIGU2/gJ3/qPgd6T+Nf9jeme+itEvMow/xXM6JLOTt+mDEp8moRp/UlZ9J4uX+ImNMBRV0lOz2Ti2ig61a9AvZCSzs6O2yjp502nTt14M+UjJn4/1TqhnoN+JSalZTJs2iYap2+jr8eSq28JvwnD29fi7XJ/8NP8mZxNTLtyoBh8SRtjeDWy9OU5hEq0edI6WDvbHEKXBm577JpHnWOzsLR9heH+K6iXsoW3In24OLU/qxbPJT3TUrRaBYrBYNvj8Snc97MnMyxdGOk1n4Dbh1IuwOdvAWqbTS/x231we6deTErvRIl1nxJTu68GN25AAxx1ldkbozmfnMFT7Ws5Oytup36bu1nd9GP6HXuLyIkvO+RXYlpmFsOmbiLw+J+M8xuN18OTr3tLeF55e3rQqVM3/pv1KVNnODYoK+rGrTrMqe1/MDQPcwgBsHehNdDp9H/4PjqFzzw+Z2hELf5V4lUarR3J1P88Scr0AaTVvvvvr3XiMh7u2iUTn5zOwAkbqJeyhSdL2H2GO+fmGKB6ntjCczVP8FTACqb69MF/2yRWLZrr1GtQNy9PAY6IdBORfSJyUERey+F4exG5ICJbbY+3HJ9VVWBsv+Yysix8uzqKFjXKEm52utWvuaLi/l6PsDGoFy2OjWdn5YfyH9xkW0Dz+ZlbyTq8kk9CV+Lz6JS//eG+2Vv6qzXvxupmnzAg5h12TPtHsWi633T0PKsWz2NcidH45WEOoZxadaT3JDoERvPRy8+S0Hggj1t+YFxKB4ZtrU7S9wM4uW2xNa0Tl/E4f/c4Ur4fwA+fPEX85H684fUSS5f+TvTmbOOuXKxlx2IxvDh7GyHnNvBN9qB/z8K/vyAs4nLA5/XwZO574Su+Cv4/mv85nBWT3rp6+RIXK4vi7roBjoh4AmOA7kBD4FERaZhD0tXGmGa2x3sOzqcqSLb/3OuWzic2PoXXG8S51a+5okSOrKZryi/8VLoflQ5MZ9HPs/N3ArsFNJ+aton43UuZEPAVlbq/+vegw0G39N97/8OsKXMftxz6hlP1+rl1cHMxNYORM7dwR4ljeOR1DqGcWnVsZe9xdDU1omZCxKs8E7iSlmHlGZb6LN7zHmP51yOxOGFCxSyL4ZuVh7h9ZibjUjvwUOJ01pfvSVTJ5kw8Uhb/n55g/NTJJKdnumTLzthVh1i29zQvNEzE+5HJeQv67YLU0iW8eXX4UJaGPEnLqLHMnjPdmsYFy6K4k+stricibYB3jDFdbduvAxhj/muXpj3wsjHmnry+cXh4uImMjLyBLKuCkHVoJQnT+vOLT3f6ei5B3PxXulPY3YqdWuUOvvxuAo+deJdD5TvQtNvj+NZtfyXtwpFggPtGXf362M2cCGyI/0+PMzmjE0NLrLC2MhTkZxW1CsvswUxO70jPrEV4PTyZkg06Ftz7FaY1n1u/sMIiMMbw3IwtnN+1lI/aZBJ6z+s3d267z5uwiMvb53uMY9uahbQ/OYmvzYP4dHmTIbfXwMNDHHBBObC7xoupGYyYsYW0AysYXm4rd2auw7PlE9bum96TOF+hNQt+msk9+/7J7349eMTjDzz7TC7afwvsrm/94bP0/XY9I2udZET9BOQmAnxjDOOnTuaBQ//HoeoP0/LMfLdvvXQmEdlkjAl35Dnz0kUVCkTbbcfY9mXXRkS2ichvItIopxOJyFARiRSRyLi4uBvIriooP12oxeSMTvRLm5X/O3BU3tj9SvTz9uTFoU/we4MPOHA6kZTpA9i4/EfrhHFRq2DnPNg176oxEpbZg5l3qiId5mYx03S5egHNgmL7UvboM4lbB3/Cc5kjMLYWJLdgNxZlzqYYzu5cwnj/0YQ2uuPmz53LgOSyhxfS/uJCzoU/Tz/PJSz5dQ7T//fSlW6rSxzVHWK7xuNbFtFzzFoyD65kcolRtMtYjWe2MVtlT69nUN+BJDYZRL+0WUxJ78TRUs1vPg8FyXZ98buWMmLGFnqWPsSIs+8jN9nSIiI81n8QkcG9aHlsPFsrPqh/F11MXlpwegNdjTFP2LYHAC2NMc/ZpSkFWIwxiSLSAxhljKlzrfNqC07RkZaZxcsfjubfmZ9Q6s5hyKYJ+kulEK09eIZ5c6fzz+SP+MWnOw+Zxey98wvKBvhQZenTHKr2MFUOTWdE5kiWpdVnZM0TjDj/Pp4trvzyLrDPyu7XMcCCbceZMWsar5VaTMOH3sS7drsraW0tTC4303XUKrJmDeKblA7091xCQL+peNZqd/3X3eB72bfqmMMrSZ85iFFp9/AEP7Kl9ed07PYgcmS1Q8c7bVu9gKpLn+YH7mKI73K8G98HjbN9YV/6/GwBw+l6/fHeMoG3fF7hzeeGUaGk303no6BkHVpJ0vcDmJrZiWH+K6zjbhzxfyJqFWbOYH726c7t538iutNXNIu47+bPq/7GWS04MUBVu+0qwHH7BMaYi8aYRNvzXwFvEQlyWC5VgVr661zeSf+Yox3H6KKaTnBH7SA+fPlZ4ur1Z2DGbL5L68gDv3vRYa6FrxLbUX//10zL6kzphp1Y0kt4If4/1m4DB90tdU3Zxpfc17Qy9/d8hA8u3kXq9AFkXlpE1IXHJ6RWuYNZ3MXTMhePFo8XXHADf2vVkZrt8H10CsPbVuer4P+j2frn+XnUsw4bm2OM4bs1UfT61ZPffHswlLl4t3oC7h2V87ihSy1avSdR4f73ONdjHO+mfcxn474jMS3zpvJSkEYdCmFiekee8ZiHV8snHBbcXFpTruNTo/io5OtUW/o0sVuK6eSXLigvAc5GoI6IhImID/AIsMA+gYiEiIjYnre0nfesozOrHC8hNYMDW1YyNvj/uKWt7ZeJLqpZ6LyOraF+zOzLg1EX9YQ5XTN4KmAFZ5uPZJj/Cj5reZHaGftz7PYozM/qkZbV6NyjN0NTnyX5+wGkLnbtidGmzZxG15RfONLoGQJ3TC7YwD6XAcmlOr/CP58extGwR7g3fhoT0jqwIr1+/s6dbW6bpLRMRk+YyOnfPuSZsON5myMpWwBWq2UPUmr34Jb4JTw1bRMZWRZruiJ0N9HK/XFsXPETj/suc9gcUMBVZRHg68WIJx7jdc+XWPjrL8Qnp9/8+VXBM8Zc9wH0APYDh4A3bPuGA8Ntz58FdgHbgPXA7dc7Z/PmzY1yvo9+32Oq/+Nns/XYeWdnpfg6vNKYD8Os/17a/k8V68N+n32aImD2xmPmi/8bbMzbpUz03DecnZ0bsmbxXHPmrVDz/Yyp1h3OLGfbe5/+6U1z/p0q5pHXPzSLvnnNJO9b9vd0qz/L9fXm8Eqz58QF88IHo8yZt0LNqslvG0v2+pWfazy80qS8X9088vqH5oVZW4zl0IoiUxePxyebJ9/9nzn/ThWTum+5dWcBfoaRR86ZD/9vuHl/9FiTkZl15UBun4nKMyDS5CEeyc8jT/PgGGN+NcbUNcbUMsa8b9s31hgz1vZ8tDGmkTGmqTGmtTHmT4dGYapAHDydwLhVh3ng1lCaVi3j7OwUXzkNRm38ADR6wKktNdfTu3wUwwNWMNm7DyW2TWLLmEGk7F9+daIi9Es/uwOnEli/+g++KPcGvXv3te50Vjnbjc0Jvu89/PtOZbz/GP46eoHU6QNZ8uscMrNssyFPfxg8vP7++tjNpPT8juTvB7BkzEjeTPmYk3eNpW3NMlffFZnfawyLwO/RKXznP4bq2z8nZfrAItFal5qRxdPfb6Ze5n6S7ht/5S7EAvwMm1cvS/jtnRh2+l/M0tvHi7zrDjIuKDrI2AnsBoxaLIZHxq2n1Ml1jIqwENDxZWfnTrkSuy/kpMq38/3MaTx8+DU8RFjf4gvad3sQ72NrilbXlV39P5OYRs8xa2mUto2Pb8+kVOdXikzeLotaReyutXx7qAzPnXufn32604fFJLZ4jqCtX10OWrIOrcTMGcysGv/i4/0VGJI+nZFe80lu/SL+3d52WBbNsn8jqz5mVGYvgu99j76tqjns3HmS7Zb+F2dv4+S2xbx9Wxr1H3qzULMyfupkeh18gzP1+1MvenbRqeMuzFmDjJW7sLsl9odNMXgeW81ony8ICGvp7JwpV5NtfMLQQYM53eM71vm147YNLzD9g2GkzRhIVlFaVdtuhfChUyKplbiZMT5fUKpWK2fnLNexOaH3vM7bI4YT33AAgzJmMy6lAy2WNWBwwtPET+7HpH8/yYUp/Rhw8Sne3l6OASFHeSZwJUS8iv92B44nilqFRE7A0vYVHvNZxs8/zWTpnlOOOXde2f39+mrFIU5uW8wE/zHUb16Ag8JzMfDRASwLvId6+74mrn7/olPH1VW0Bae4sc2n8m1Kex6VPwjsPw2PgrxrRBUrxhii5rxBzd1jGJXZi7mlBvFltVU0atEer1rOv6U869BKkqcPYEJaR4b7r8DXfnmLoupSa1n442RtHM+qWz5hdWYDWh75mm5np7Cm8mOcb/UKEd57KP3zk3+bWPCmWxeynSdl/3LSZwzk96wWNOo6hMZ33Ht12oL8XKNWkTZjIGOT2/O47zIC+k29Mtt0YbL9HZ2Y1pEHLG42+aWTaAuOumlZ1dvyo1dXhjGXzOZDNLhRDiVHVlPzyExMxCs8FbCCO7x288H2EiRO7c/y336w3oXjpDELGVkWRqwvyYS0joz0mo9v6wKeJNER7IOLjm/g2WcyHXa8wlvll9Et5ReIeJU743/i3lIHKX1uR8HcYZdtjFiJuh2g9yQCfD2pvPgptq9ecHVeC/BzXXCxNt8kt2ekbZJLZwU3lya/bD7kE0ZkjsTMGUzWpSkTVJGhLTjFzPx5M4jY9gon6/Sl0fEftO9YOU4OSxOYOYPZ0vIz5m6O4cUL/2WBdzce9ViCZ5/JeJ/ckuO4k4JoAUjLzOLZ6VtI3LuMCQFjKNFmaMFPkugIOY3N+XM0LH8f+s5ybEtNPp1NTOPDr7/ltcQPuNBoIGFHZhZoHhZsO87MWdMY6zeaEm2exHvLROd8ftk+k9mR0cyfN4MnasbT6Yn/FG5e3Ii24Kibsm/dL0Rse4Xp1d6jYb8PdUI/5Vi5rKp9m1cU/37haRIaD2RI5hy+SW5P+x+yWHKxCsa+/jmqBSDbfDDH41P49+hvaL//fSYGfEWJvlMLZ5JER8hpbI4l80pwA06786t8oC+vPz2Uxf53E7Z7DBuDemFqtHXMye0+Q4vF8PmS/Wyb/W8m+H6KzyOT8e7ypvM+v2yfSZ/wqtRt1YMNUedYtXju1WmL8F2ExYG24BQT0eeSmT/6VQ771OVfzz9FST9v6wFXnV5fuRZb8GLCHyPjr/G85/cq005V596SB/mYz/Bq9Themx30i9yuRWNVRgOmzZzGB1mfkhDWnertBhRKi1GxEbUKM3swi/zvpsWZ+UwOfYen6lygRI0WN1fOts8w8b7xPP9XSZL2LWeS76d4dHwD77Yjbvy8BSQjy8J/vxrHs2f+zbFLyzk4qWXNVRVEC44GOO7Krhn1QnIGD3y9lhoJm/iwTSZBXf/h7Nyp4iSXrqvtbT7n3R3laXf8W0Z6zWd7rWE0rF4Jr6rN8/blmMut1cRu5myZRvjOf5zv0joyyHspyfeNp/KtXQv+WosTu8/V1GjLbwvn0GrTi0yUXjzrsxCfhydbx/hd64s+l8/QErOZlUlVabb+eaZldeZJv+X4PjrZOWNu8uhiagb/GT2OVxP+S2qzwVQ+MF2Dm3zQLiqVd3a3xD45NZLK5yMZ6zuaoLptnJ0zVdzk0nXVVA4zt1smTwesYE7Ao4QenM6o5VEkfz+AU9v+sKa99OV4PurvXREeXtZJ7+y6uLJmDeL7mCDunJXFpIxOjPSaT8DtQzW4KQh2n6uI0OO+PiTeO56KgV4MSXyahGn92fP9P6zdkA3u/fvro1bBuairupkyDq4kbcZA3trozZAVfvzhfzfPec5z3oDifCjl581Lw55goU93Km/7kpN1+2lw42TaguPG0vavIG3mQCamu9Atsar4yNYCsGvtz1Rf9gyj0u7hKa8F/OF/N/dl/M7RjmOoWtafwIVP/O0W6Kw7XsCs/h/bQx6k9rHZDEt9lg00ZmStkzwT9y88WxbCiuvqKsYY5m+JJen3dxmQPptv5SEs1e9k8PF3OX/3OMo07IRfzFqYM5iMByZyPimd0r88yZ9l76fZqXk8nf4cMWXC+XfT80RsewUJf9x1PkNbkD0lsxP3Z/zO8bu+vvo2epUr7aJSeZaYlsljkzZyZ/Q3jPCab12EruMbzs6WUlfk0j1x8dBf7Dt2khbHxvNFZi/+l9kbgK7++/nQ/I/f/XrQPfVX/un1Er8n1WWEx2xGes1nincfzrd6lQEhRyn361DHzwej8s7WDRld81HK7pnKC1nPk5SeyWjvL5iW1ZkBnkt40TzPivQGALzgNYeRXvP5uWx/SnZ/h7aeu/GYO8S1PkO7PJ4s15JPx33Lu4nvcbTpCzR44J9XpysC44aKGg1wVJ6cupjK0CmRBJ5Yx4SAMdb5PlzlF5BSdhPbWTZ+x9ZWn7FRGnMoLpGI2HHcc34a80v1Y02VYbRkJz0PvkHGrUOsK4FfupuokG4/VznIZczVkY5jSN67nEYHv2FlyBBWVRlKmRLeNEjbSvvtr+LR4nE8Nk1w3c8wW8Aen5zOvDGv80jiVBY2+oyHHuqL59HVRT9QcxINcNTfZftPtfnYeb6dPIn2GavpVWIzPo9McZ1fQErl8OV4eRsuBz5Efgd3vghr/udav/KLg9wGf++YC3sXXvn87D9TN/0MUzOymDJ9Kg8e/j9WlrqXnpmL8OgzyS2uzdE0wFF/d+n224cmMvVUdf745Qe+9BqFaXAPZVs+6lq/gJS63pej/Rfh9Iehwxtw+7NXp9U6XvTkFrg2uBcaP+j2f6d2TfsHjQ6OZSwPUqbHOzycPg9xtRaqAqYBjsrRuZ1L8Jr3GBPTOzLEZxnSe5Kui6LcyzVuCS+uXwgupTh/frZg7nzDAXhunsiw1GepV7EkbyR/hPcjk92y5epGaIBTnOXwByLr0Eq2rF/GYwduZ7hlFk97zMVEvIJ0/D/n5VMppZRVtsDFcmgl6bMGMTJzJBdTM/jGbzQJTQZS+cB0xFXHHjmIzoNTnNnmtSFqFcYYdqxeSMK0/ny6K4CHg44wzH85RLyKRE4o2lPPK6VUcZFtDiiPWu3we3QKX7YzRNz1IDMsnQnd9iXTszoz9WQ1LpRrcvXyE5e6Yj28rj6vLgGRJ9qC40LM4ZVkzhrMT97d6JCwkHd8XqF/62q03PSSNfrXpk6llHINtmUudoU+RNVDMxie9hx/mUYMrhzNKxf/y8XGg6iwbxqS22D6nMYvLRwJBrhv1FXvw9ov4I4RRbplSFtwiotsiwVmZFlYu2Q+k+fO56ukdjyUOJ3omo/y8avP0sr36JXgBpy28J5SSqk8sgUp0mcSjft/RKkB05ha6ms+uC2eVRkNGJfSgYpbRvFNUnv67GjOxMpvkzp9IIdmvU7mrEGc7zGOzIYP/L21Z+c82DXv7wvY1mz/97S5zRC+cCQsGPn3/BZUi1G27ztH8rp+ElVgcht4dy4K/vyCY52+Ytqp6hzb9DvvZ37KVp+HGFZiBZmtXqbZ5okQc2/O0XdYhLbeKKVUUZWt60pqtsPr4cn0id1Mn/CqWGavYl+1pxhwcAYnUlvwSWwYFy3tGbnnK0Zl9uKzaWlAGnd4PsWXk/ryg0dXepvFvOH1IiC8P7kf8z270itrEW95v8yW1Q1pbnmed6f0Y1ngPXRJ/oW5Nf9NmUxvus8YyOH2owms35GQcxvx3jnPmscmD/69xShq1d+/r3JqHcpPS5JtyZXSvpR0dDFrgONMl8bV2DU9Zs0axG8NPmCtV11eXvAEJS1d+Nh7KcebPcPTB75FetvmtanVTruilFLKFeX2wxRgzmA8+kyiXlgERPXg3TmDebvrC7BmFafqj+CpXVNpcEsP9pW4ldTMWuw8EsvQExNZWmEQJSt0wmCIPHWYx+ImszhoEN4V2tHSgMW0ZfXJfTwQP43J3n349EBFElIzmeXxNKMXDWfar53p77mEN7xeIijAh39M7c/mig/Q8sx8trX+nHKBPtSebZ2SxNN+EdU7X/z7FAA5BElmzmCSWo6gxKxB7I/4kgMBt+F5ZDUddnzMorKDCSv7UU1HF7OOwSksubTWZG7/AbN7IRuCetLo+A88lfYc6yyNaFS5FP8uvYBbo8ZZl1nwCSi2o+uVUqpYyOl74s/RsPx96Dvr+pNf5rbP/nV2+5NDb+d4fCo+q/5LtZ2jWV/1ceaXHszxCyncdeo7BqTPsrYY2ZZLaeOxizHeXzDXoysPmcX8y+8Vdvs1I9zs5JWL/+X3EnfTLeUX/hPwGhZj4Y2kj5gjd/GgZRHPZIxgnaURbTx2XV6yo7/nEp63PE9U4G0c+0/nE8cuWCo7sjg1wHG060xUlt5rAps9mxCzeRF37X6NZzJGEG52MtJrPvNK9uVC61fp3KAiVS9E5lxJlVJKFR/5mfxyZj/r8Ue+vzqoudas35BrkGTCH8NsnEB0p684FHgrx+NTqbnjc26PncAfwYNYUG4IqRlZpGVa6Hl+Ig8kTGdB6f4sLD8ELw/hvvOT6H52CmsqP8bW2k9T0s+bUiW8aH7oa6rtHE1qm5fwvetN5Mhqbr29Q+aWE1nejiw6DXDyIqcKllsfo12lS61yBzGbF1FlydNMDn2bQ3FJ/CPxg8uR6yelX6dhSCkePvomluaP4bd1UrGYvlwppdRNys/3Um53UeUnSMpn61Ce09qCrzJvRe2PTzX1HFlEGuDYu8FI+UJIG05uW0z1Zc8wt+a/iT2fwtBT7zElsxP9PJfwbMYI9pW4lcahpRmeNYPbYyeQevtL+NVpX6ynL1dKKeVEN/jj/bqtQ/lpSbItuSJ3PKczGecqt+AkPyO8c/gAzZzBJN8/nrOJ6YQsHs7uyr2pEz2bbyq8SVxiGq9c/C9TM60tMs9mjGCTRxNqBgUwwmM2Pc5N5WCDp/G7601Cy5RAjqy+OnLVQEYppZQrcMR37DXm45G2L7hpgJPfwshpf24DsXKIGI0tuozrMYFT5VuSeWglDdaO4Lf6/yU+OZ2HDr/J7yV60CXpF0ZmjWRlRgMAXvCaw0iv+YyxPMD8MoOpUrYEg1K/p8OpSRxu+AweHd+gajl/PI+uzr25TrudlFJKqasUxER/zrtNPC3R+m8ut5TlevvZnMGYO1+AOYO5eM+3xFdsjeXwKqqs/JTDDUdQY8ZA9lXtQ51js5hX6322HW9ChdK+DJ3SjwXe3bk7/TeeyxxBlsUwet4QltnGwwzJGMG6DaUo5eeFl083BiTN4PfyA6kT1oM7SvnSJGM7LTauJLnZizy9fTLP9BoCpMKchRDxKjUjv4OEbpDA1XkOa3ul2ym3Cfk0wFFKKaUcymktOM1Dfc20j54n7Mgsljb+kLRMC932vMbG4F40Pz2PSZXfYYfPLdRI2Mwzcf/iZ98e9Ej9lVfkBVak1yfc7LzqVrNnbbegXWplGZXZi694mLL+PpTx9+bJzBk8mDidpRUGEVnzacqU8ObO6HE0OjiWE81GkBnxOsElffGLWZu31pfc+hi120kppZTKF7daTbxapSBzbFjGVffYv+T9A895zmO8x0NM8etPCW9P/Hw8GZgyjQcTp7MoaCBrqgwj0M+LQF8v7oz+hqaHx3GowdOcCn+Jimc3UGPZM6Q2G4z/tslIn0n5G+F9ad/NrPmhgYxSSimVL04LcESkGzAK8ATGG2M+yHZcbMd7AMnAYGPMNRdDal7F1yz95jVK7ZxKSs/x+Hp54jV3SN5uP7vGrWY3NcJbW1+UUkqpQueUAEdEPIH9QBcgBtgIPGqM2W2XpgfwHNYApxUwyhjT6lrnDW9S30Tu2HtjkxNd41Yzbn/2ypvkd4S3BjJKKaVUoXNWgNMGeMcY09W2/TqAMea/dmm+AVYYY2bYtvcB7Y0xJ3I7r8PvotIARSmllHJJzrqLKhSIttuOwdpKc700ocBVAY6IDAWGAlSrVu3KgXtH8Te5rYid3/1KKaWUKnY88pBGctiXvdknL2kwxowzxoQbY8KDg4Pzkj+llFJKqXzLS4ATA1S1264CHL+BNEoppZRShSIvY3C8sA4y7gTEYh1k3NcYs8suzd3As1wZZPyFMabldc6bAOy7qdy7viDgjLMz4UTF/fpBywC0DIr79YOWAWgZ1DPGlHTkCa87BscYkykizwKLsN4mPsEYs0tEhtuOjwV+xRrcHMR6m/iQPLz3PkcPKHI1IhJZnMuguF8/aBmAlkFxv37QMgAtAxFx+OrbeVqqwRjzK9Ygxn7fWLvnBnjGsVlTSimllLoxeRmDo5RSSinlUpwZ4Ixz4nsXFcW9DIr79YOWAWgZFPfrBy0D0DJw+PU7bS0qpZRSSqmCol1USimllHI7GuAopZRSyu04JMARkaoislxE9ojILhEZadvfTETWi8hWEYkUkZa2/S1t+7aKyDYR6ZXLecuJyB8icsD2b1lH5NfRCvD63xGRWLu0PQrzuvIjv2Vg97pqIpIoIi/ncl63rAN2r7ve9bttHRCRGiKSYndtY3M5r0vUASjQMnCJenAj/w9E5BYRWWdLv0NE/HI4r9vWAduxvJSBS9QBuKH/B/3srmuriFhEpFkO581fPTDG3PQDqATcZnteEuvEgA2BxUB32/4eWBfkBPAHvOxee/rSdrbzfgS8Znv+GvChI/Lr6EcBXv87wMvOvr6CKAO7180F5uR2ne5aB/Jx/W5bB4AawM48nNcl6kABl4FL1IMbuH4vYDvQ1LZdHvAsZnUgr2XgEnXgRsog22ubAIdzOW++6oFDWnCMMSeMMZttzxOAPVgX2zRAKVuy0tiWbzDGJBtjMm37/chh3Sqb+4HJtueTgZ6OyK+jFeD1u4z8lgGAiPQEDgO7yJ1b1gHI8/W7jBspgzxyiToABVoGLuEGrv8uYLsxZpvtNWeNMVk5nNqd60Bey8Bl3OT/g0eBGbmcOn/1oAAitxrAMdtFNLA9j8a6zEN1u3StsP5hTwR65XKu+Gzb550dmRby9b8DHMEa3U8Ayjr7+hxVBkAAsA4I5Bq/TNy1DuTj+t25DtQAkoAtwEqgrbvUgQIoA5erB3m8/ueBqVhnyt8MvFoM60Bey8Dl6kBeyyBb+kNAY0fUA0dfSCCwCXjAtv0F8KDteR9gSQ6vaQBsAPxu9mKc/SiA66+IdXkMD+B9rMtkOP06HVEGwCdAH9vzd3CTAKcArt+d64AvUN72vLntj14pV68DBVQGLlUP8nH9LwNRWNdh8sca9HcqZnUgr2XgUnUgP2Vgl74VsOMa58tXPXDkhXhjjUBftNt3gStz7QhwMZfXLgfCc9i/D6hke14J6/pVTv/QCuv6s6WpQR766l2lDIDVWH+NHAHigXPAs8WlDuT1+t25DuTw2hWu/negoMrAlepBPv8fPAJMskv3JvBKcaoDeS0DV6oD+S0Du+OfAf+8xjnzVQ8cdReVAN8Be4wx/7M7dBxoZ3veEThgSx8m1lXKEZHqQD2sf+izWwAMsj0fBPzkiPw6WkFdv4hUstvsBex0eOYdJL9lYIxpa4ypYYypAXwO/McYMzqHU7tlHcjr9btzHRCRYBHxtD2vCdTBOiYpO5eoA1BwZeAq9SC/14/1C/AWEfG3/U1sB+zO4dRuWwfIYxm4Sh2AGyoDRMQD6A3MvMap81cPHBSp3Yl18NB2YKvt0cO2fxOwDfgLaG5LPwDr+JOtWPsce9qdazy2XzBYR5MvtRXCUqCcs6PSQr7+qcAO23kXYItci+Ijv2WQ7bXvYNdFUxzqQD6u323rAPCg7f/BNtv/g3tduQ4UcBm4RD24kf8HQH9bGewEPipudSAfZeASdeAmyqA9sD6Hc91wPdClGpRSSinldnQmY6WUUkq5HQ1wlFJKKeV2NMBRSimllNvRAEcppZRSbkcDHKWUUkq5HQ1wlFJKKeV2NMBRSimllNvRAEcppZRSbkcDHKWUUkq5HQ1wlFJKKeV2NMBRSimllNvRAEcppZRSbkcDHKWU04hIWxHZ5+x8KKXcj64mrlQxJSJHgIpAlt3uScaYZ52To8IjIjWAKMDbGJPp5OwopQqAl7MzoJRyqnuNMUuc8cYi4qXBhVKqoGgXlVLqKiLytYj8YLf9oYgsFav2IhIjIv8UkTMickRE+tml9RWRT0TkmIicEpGxIlLCduzSa/8hIieBiZf22b3+iIi8IiLbRSRJRL4TkYoi8puIJIjIEhEpa5e+tYj8KSLxIrJNRNrbHVshIv8SkbW21y4WkSDb4VW2f+NFJFFE2hRIYSqlnEYDHKVUdi8Bt4jIYBFpCzwODDJX+rNDgCAgFBgEjBORerZjHwJ1gWZAbVuat+zOHQKUA6oDQ3N5/weBLrbz3Av8BvzT9p4ewAgAEQkFfgH+bTvny8BcEQm2O1dfYAhQAfCxpQGIsP1bxhgTaIxZl5eCUUq5Dg1wlCrefrS1flx6PGmMSQb6A/8DpgHPGWNisr3uTWNMmjFmJdYgo4+ICPAk8IIx5pwxJgH4D/CI3esswNu216bkkqcvjTGnjDGxwGrgL2PMFmNMGjAfuNWWrj/wqzHmV2OMxRjzBxAJ9LA710RjzH7be83GGngppYoBHYOjVPHWM6cxOMaYDSJyGGvLx+xsh88bY5Lsto8ClYFgwB/YZI11ABDA0y5tnDEm9Tp5OmX3PCWH7UDb8+pAbxG51+64N7Dcbvuk3fNku9cqpdyctuAopf5GRJ4BfIHjwKvZDpcVkQC77Wq2dGewBiCNjDFlbI/Sxhj7oMKRt21GA1Pt3quMMSbAGPNBHl6rt48q5eY0wFFKXUVE6mId19IfGAC8KiLNsiV7V0R8bGN07gHmGGMswLfAZyJSwXauUBHpWkBZnQbcKyJdRcRTRPxsg5ar5OG1cVi7y2oWUN6UUk6mAY5SxdtC211Elx7zsQYOHxpjthljDmAd4DtVRHxtrzkJnMfaavM9MNwYs9d27B/AQWC9iFwElgD1KADGmGjgflv+4rC26LxCHv6u2cYZvQ+stY09al0QeVRKOY9O9KeUyjPbbdjTjDF5aSVRSimn0RYcpZRSSrkdDXCUUkop5Xa0i0oppZRSbkdbcJRSSinldpw20V9QUJCpUaOGs95eKaWUUkXEpk2bzhhjgq+fMu+cFuDUqFGDyMhIZ729UkoppYoIETnq6HNqF5VSSiml3I4GOEoppZRyOxrgKKWUUsrtaICjlFJKKbejAY5SSiml3E6eAhwR6SYi+0TkoIi8lsPx9iJyQUS22h5vOT6rSimllFJ5c93bxEXEExgDdAFigI0issAYsztb0tXGmHsKII9KKaWUUvmSlxaclsBBY8xhY0w6MBO4v2CzpZRSSil14/IS4IQC0XbbMbZ92bURkW0i8puINMrpRCIyVEQiRSQyLi7uBrKrlFJKKXV9eQlwJId92Vfo3AxUN8Y0Bb4EfszpRMaYccaYcGNMeHCwQ2dkVkoppZS6LC8BTgxQ1W67CnDcPoEx5qIxJtH2/FfAW0SCHJZLpZRSSql8yEuAsxGoIyJhIuIDPAIssE8gIiEiIrbnLW3nPevozCqllFJK5cV176IyxmSKyLPAIsATmGCM2SUiw23HxwIPAU+JSCaQAjxijMnejaWUUkopVSjEWXFIeHi40dXElVJKKSUim4wx4Y48p85krJRSSim3owGOUkoppdyOBjhKKaWUcjsa4CillFLK7WiAo5RSSim3owGOUkoppdyOBjhKKaWUcjsa4CillFLK7WiAo5RSSim3owGOUkoppdyOBjhKKaWUcjsa4CillFLK7WiAo9yGMYbY+BSS0zOdnRWllFJO5uXsDCh1I4wxRJ9LYUfsBXbEXmBn7AV2Hr9AfHIGft4edKhXgR5NKtGxfgUCfLWaK6VUcZOnv/wi0g0YBXgC440xH+SSrgWwHnjYGPODw3KpFJCakcWMDcdYuuc0O2IvcCElAwBvT6FuxZJ0axRCw8qlOHAqkd92nuS3nSc12FFKqWLqun/tRcQTGAN0AWKAjSKywBizO4d0HwKLCiKjqvhKzcji+7+OMXblIeIS0qgfUpIeTUJoHFqaJqGlqRdSEl8vz6te8859jdh45By/7jhxOdjx9bIFO7dUopMGO0op5dby8he+JXDQGHMYQERmAvcDu7Olew6YC7RwaA5VsZWSnsX3fx1l7MrDnElM4/Za5Rn96K20qln+uq/19BBa1yxP65rlefveRkQeOccvtmDn913WYKd9vWDuuaUy3RuH4OWpw9GUUsqd5CXACQWi7bZjgFb2CUQkFOgFdOQaAY6IDAWGAlSrVi2/eVXFRE6BzZi+eQtscuLpIbSqWZ5WdsHOpZadRbtO0bRKaT586Bbqh5Ry8JUopZRylrwEOJLDPpNt+3PgH8aYLJGcktteZMw4YBxAeHh49nMoxe87T/J/P+7gTGI6d9Quz1edbqNlWDmHnT97sLNw+3HeW7ibe75Yw9Pta/FMx9p/6+5SSinlevIS4MQAVe22qwDHs6UJB2bagpsgoIeIZBpjfnREJpX7M8bw9cpDfPT7PppWKc3X/ZvToobjApuceHgI9zcLpW2dYP71826+WHaQX3ee5MMHb6F59bIF+t5KKaUKlhhz7YYUEfEC9gOdgFhgI9DXGLMrl/STgJ+vdxdVeHi4iYyMvJE8KzeTnmnhjfk7mLMphvuaVuajh27Bz7vwW1GW7z3NG/N3cOJiKoNvr8HLd9XTgchKKVUIRGSTMSbckee87shKY0wm8CzWu6P2ALONMbtEZLiIDHdkZlTxcz4pnf7f/cWcTTGM7FSHUY80c0pwA9ChfgUWv9iOAa2rM3HtEbp+voo1B844JS9KKaVuznVbcAqKtuCow3GJPDZpI8fjU/m49y3c3yzU2Vm6bEPUOV6bu53DZ5IY2akOIzvVwcMj9/FlSimlbpxTWnCUKgh/HjpDr6/+JCE1kxlDWxWp4AagZVg5fh3Zlgdvq8KopQd4ckokF1MznJ0t5YbSMrM4cCqBpXtOcfB0Is760amUu9EBBqrQzd4YzT/n7yAsKIAJg1tQtZy/s7OUIz9vTz7pfQtNq5bmvYW76Tl6Ld8MaE6diiWdnTXlYiwWw4mLqUTFJXH4TCKH45KIOmN9xJxPxmIX0wQF+tKqZjla1yxPm5rlqBUcyLXuTlVK5Uy7qFShWrHvNIMnbqRtnSDG9LuNUn7ezs5SnmyIOsfT328iJT2LT/s0o1vjEGdnSRVB8cnpHD6TdDmQiTqTxOG4JI6cTSI1w3I5XYCPJ2HBAYQFBRIWFECt4ACqlC3BwdOJrD98jvWHz3LiQioAQYE+tAorT2tb0FO7ggY8yv0URBeVBjiq0GRmWeg+ajUZWRYWv9AOHy/X6iE9cSGF4dM2sy06nuc61ub5znXx1HE5Cog+l8wbP+5k1f64y/s8PYRq5fypGRRAWFAAYcEB1AwKpGZwABVK+l4zSLm0mOz6w2dZf/gs6+wCnvIBPrSuWf5yK08dDXiUGyiIAEe7qFShmRUZzYHTiYzt39zlghuASqVLMGtoa976aSdfLjvIjtgLjHr4Vkr7u0YrlHK8LIth8p9H+GTxPgR4vnMdGlcuTc3gAKqW88f7BpcAERGqlfenWnl/+rSoenXAE3WW9YfO8suOE4A14GkZVo7uTSpxX9PKDrw6pVybtuCoQpGQmkGHT1ZQMyiQWcNau/QvTmMM3/91jHcX7iIo0Jc372lI98YhLn1NKv8OnErg1bnb2XIsnvb1gnm/VxNCy5QolPc2xhBzPoV1thae9YfOcvxCKhMGh9OxfsVCyYNSjqRdVMplfbxoL2OWH+KnZ+6gadUyzs6OQ2w5dp5/zt/JnhMXubN2EO/c14jaFQKdnS1VwNIzLYxdeYjRyw4S4OvJ2/c24v5mlZ0a4KZlZnHfl2uJT0ln8fPttFVRuRy9TVy5pOPxKYxfHcX9zSq7TXADcGu1six89g7eva8R22Li6T5qFR/8tpektExnZ00VkG3R8dw3eg3/+2M/XRuH8MeL7eh5a6jTW+98vTz5pHdTziSm897Pu52aF6WKCh2DowrcJ4v2YYBXutZzdlYczsvTg0G31+DuWyrx4W97GbvyED9tjeWNuxtwd5NKTv/iUzcvy2JYfSCOGRuO8cfuUwSX9OXbgeF0aVi0uoKaVCnN0+1r8eWyg3RvHELnIpY/pQqbdlGpAmOxGEYtPcCopQd4qn0t/tGtvrOzVOA2HT3Pmz/uZPeJi9xRuzz/7tmEsKAAZ2dL3YBTF1OZvTGamRujiY1PoVyAD33Cq/J0h1pFdnqD9EwL941ew7mkdP54QbuqlOvQMTjKZVxMzeCFmVtZuvc0DzWvwr97NnbaGlOFLctimP7XUT5etA9j4LOHm+mvaReRZTGs2h/H9A3HWLb3NFkWwx21y/Noy2p0aVgRX6+iX4d3xl7g/jFraVc3mHfva1RkJ9JUyp4GOMolHDiVwLCpmzh2Lpm3721I/9bVi2VXTcz5ZIZP28TO2Is837kOIzrqelZF1YkLKczeGMOsjcc4fiGVoEAfHmpelUdaVKWGC7bAjV99mA9+24vFGLo3rsQTbcO4tVpZZ2dLqVxpgKOKvN93nuSl2Vsp4ePJV/2a0zKsnLOz5FSpGVn8c/4O5m2OpXODivzv4aZFtnujOPrz4BkmrI1i2d7TWAy0rRPEoy2r0blBRZecq8neiQspTFp7hOkbjpGQmkl49bI80bYmXRpW1AkqVZGjAY4qsrIshs+X7OfLZQdpWrUMY/vfRqXShTMnSFFnjHUyuH/9sofq5f0ZNyBcbycvAjYeOUefb9ZRPsCXPuFVeLhFVaqXd73WmutJTMtk9sZoJqyNIuZ8CtXL+/P4nWE81LwK/j56n4kqGpwW4IhIN2AU4AmMN8Z8kO34/cC/AAuQCTxvjFlzrXNqgOM+LqRk8PzMLSzfF0ef8Cq8d3/xGW+TH+sPn+WZ7zeTlmnh0z5N6dpI17NylpT0LLqPWkWmxfD78xEE+rr/F31mloVFu07x7erDbI2Op3QJb/q1qsbg22tQoZSfs7OnijmnBDgi4gnsB7oAMcBG4FFjzG67NIFAkjHGiMgtwGxjzDVvmdEAx330G7+eDVHnePveRvRrVa1YjrfJq+PxKTw1bRPbYi4wwraelY7LKXzvLtzFxLVHmPFka9rUKu/s7BQqYwybjp5n/OooFu0+iZeHcF/TUJ5oG0aDSqWcnT1VzJxNTGPc6sP8s0dDp6xF1RI4aIw5DCAiM4H7gcsBjjEm0S59AOCcfi/lFEfOJHNv08r0b13d2Vkp8iqXKcGsYW1488edfLHsIDuPX+Szh5tRuoSOyyksG6LOMenPIwxsU73YBTdgXecqvEY5wmuU4+jZJCasiWJ2ZAxzN8fQtk4QT7StSUSdIP2hogpMZpaFlfvjmBMZw9K9p8i0FEzIkJcAJxSIttuOAVplTyQivYD/AhWAu3M6kYgMBYYCVKtWLb95VUWYh/4xzDM/b08+eugWbqlSmncX7qbnmLWMG9CcOhVLOjtrbi85PZNXfthG1bL+xWJepuupXj6Ad+9vzAtd6jJ9wzEmrT3CoAkbqFsxkOc61uHuJpW0hVE5zMHTCcyJjGHelljiEtIoH+DDoDY1eKRlVep8cP3X51deApycavffwi1jzHxgvohEYB2P0zmHNOOAcWDtospfVpVyHyLCgDY1qF+pFE9N20zPMWv5tE9TujWu5Oysua3oc8n874/9HD2bzMyhrQkoBuNu8qqMvw9Pt6/NE3fWZOG243yz6hDPzdjC2JWHeLVbfW3RUTfsQkoGC7cdZ86mGLZFx+PlIXSoX4HezavQoX4FvD0L7m7FvPwPjwGq2m1XAY7nltgYs0pEaolIkDHmzM1mUCl31qJGOX5+7k6GT9vE8GmbeaZDLV7sUk9v43WQw3GJ/LbzJL/vPMmO2AsADG9Xi9Y1i1/XVF74eHnwYPMq9Lw1lAXbYvl08X4GTdhA65rl+Ee3+jqXjsoTi8Ww9tAZ5kTGsGjXSdIyLdSrWJL/u7sBPW8NJSjQt1DykZcAZyNQR0TCgFjgEaCvfQIRqQ0csg0yvg3wAc46OrNKuaOQ0n7MGtaat3/axZjlh9gZe5EvHrlVp9m/AcYY9p5M4HdbULPvVAIATauW4bXu9eneOMQtbwV3NE8PodetVejRpBIzN0Tz5bID9PrqT7o2qsjLd9XT7lSVo6Nnk/hhUwxzN8Vw/EIqpfy86BNeld7hVWgSWrrQWwGvG+AYYzJF5FlgEdbbxCcYY3aJyHDb8bHAg8BAEckAUoCHjbMm2FHKBfl6efLBg7dwS5UyvL1gJ/eNWcO4AeHUC9EvkusxxrA95oKtpeYER84mI2JtHXv73oZ0bRRC5TI6J9ON8PXyZNDtNXioeRW+WxPFuFWH+WP3Kh68rQrPd6lLqJZrsZeUlsmvO04wZ1MMG6LOIQJt6wTzeo8GdGlY0alThuhEf+qm3fHBMtrUKs8nvZs6OytuYdPRcwyftpmLKRkMaF2doe1qUqGkzlNiz2IxbDp2nt92nGTRrpPExqfg6SHcXqs83RqHcFfDEIJLFk4zeHFyLimdr5YfZMr6o2BgQJvqPNOhNuUCfJydNVWIjDFsPHKeOZHR/LrjBEnpWdQo70/v8Ko8cFvoDU3yqjMZqyJn09HzPDpuPX1bVeOd+xo5Oztu4/TFVD74fS8/bonFx8uDfq2qM6yYBTpZFsP55HTOJaVzJjGNc0nW5/tPJbBo1yniEtLw8fSgbZ0gujUOoUvDipTx1y/awhAbn8KoJfv5YVMM/j5ePH5nGP1aVytW9bM4slgMC7cfZ9TSAxyOSyLAx5O7b6lE7/CqhFcve1NdUBrgqCJlZ+wFHv12PeUDfJg9rI3OhloAos4kMXrZQX7cGouXh9C/tesGOplZFs4nZ3AuKZ2ziWmctQUsZ23bl55fOh6fkkFOf55KeHvSvl4w3RqH0LF+BUrq2l5Oc/B0Ah8v2seiXafw8hC6NKzIoy2rcWftIL293I0YY1iy5zSfLt7H3pMJ1A8pyRNta9KjSYjDlvvQAEcVGftPJfDwN+vw9/Fi9vA22hdfwI6cSWL08oPM32INdPq1qs5jd9agSll/Z2cNsC59EHUmyfZI5PiFVM4lXgpgrMHMhVwCFhEo6+9DuQDrIyjw0nNfu+c+lA/wpXygD2X9ffQusyLmcFwiszZGM2dTDOeS0qlStgSPtqxG7+ZV9IePi/vz4Bk+WrSPrdHxhAUF8GKXugUyP5IGOKpIOHImid7frEOA2cPaUCNI70opLEfPWlt05m2JJctiCC7pS5PQ0jQOLU2T0NLcUqU0FQvoCyUzy0JsfAqHzyRxOM4ayESdSSIqLonjF1KvSmsNSGyBSeDVAUr25xqwuI+0zCz+2H2K6X8d489DZ/H0EDo3qMCjLavRtk6wfs4uZMux83yyeB9rD56lcmk/Rnauw4O3VcGrgOat0QBHOV3M+WQe/mY9KRlZzBraWm8XdZJjZ5NZuvcUO2IvsCPmAofiErk023lwSV8aVy51JfCpUpqQUn556h83xnAmMZ2oM0kcjrMGMIdtLTNHzyaRkXXl70VJPy9qBgdSMyiAmkEBhAUHEBZkfegq1SrqTBIzNx7jh8gYzialE1qmBI+0qEqfFlULLAhXN2/vyYt8ung/f+w+RfkAH57pUJu+raoV+N1QGuAopzp9MZU+36zjbFI6M55sTePQ0s7OkrJJTs9k9/GL1oAn9gI7Yy9w8PSVoCco0OdyK0/j0NI0rFSKCykZ1uDF1hpz6XlCWubl8/p4elC9vD81gwMICwq8HMjUDAqgXICPzm6rris908Ifu08xY8Mx1hw8g6eH0LF+Bfq2rEZEXW3VKSqOnEni8yX7+WnbcQJ9vRgWUZMhd4QV2ozfGuAopzmXlM7D36wjNj6FqY+3onl1ndG0qEtOz2TPiYvsiLnAjtiL7Iy9wIHTCWRf104EKpcuYQtirI9LLTOVy5TQLyDlMEfPJjFzYzRzIqM5k2ht1Xm4RVX6hFclpLS26jjDyQupfLHsALM3RuPlKQy5I4xhETUL/Y5EDXCUU1xIyaDvt+s5eDqRSUNaFssVmN3FpaBn78kEyvn7EBYcQI3yAU6djEsVP+mZFpbuOcX0DcdYfeAMHgId61ekb6uqtKtbQYPqQnA2MY2vVxxiyvqjGGPo27Iaz3Ss7bQ7NDXAUU7x7PTNLNp1knEDw+lQr4Kzs6OUciPHziYzK/IYsyNjiEtIo3JpP/rYWnV0BmrHysyysOHIOX7feZK5m2JIycjigduqMLJTHaqWc+4dmRrgqEJ39GwSHT5ZwbB2tfhHt/rOzo5Syk1lZFlYuue0rVUnDgE61LPegdW+XnCB3b3j7lIzslh78Ay/7zzJkj2nOJ+cga+XB3c1CmFkp9rUrlA0bhQpiABHb3VQ1zR+dRReHh4Mub2Gs7OilHJj3p4edGscQrfGIUSfS2bWxmhmRUazdEokIaWsrToPt6iqc27lQWJaJsv3nub3XSdZsfc0SelZlPT1olODCnRtFEK7esHF4k5HbcFRuTqXlM7tHyzlvqaV+eghXWdKKVW4MrIsLNt7mhkbjrFyfxwA7esG82jLanSsX0FbdeycS0pnye5T/L7rJGsOnCE9y0JQoA9dGobQtVFFbq8VhI9X0S0vbcFRhWrquqOkZlh4sm1NZ2dFKVUMeXt60LVRCF0bhRBzPpnZtladoVM3UbGUL33CrWN1nD1+xFmOx6eweNdJft91kg1R57AYCC1Tgv6tq9OtcQjNq5ct1gO2tQVH5Sg1I4s7PlhG06plmDC4hbOzo5RSgHWg7PJ9cUz/6ygrbK06EXWsrTqdGlTA281bdQ7FJfL7zpMs3nWSbTEXAKhTIZBuja2BYKPKpVxyfiqnteCISDdgFOAJjDfGfJDteD/gH7bNROApY8w2R2ZUFa4fNllnHx0aoa03Sqmiw8vTgy4NK9KlYUVi41OYtTGa2RujGT5tE8ElfenZrDJNqpShfkhJwoICXDrgMcZw/EIqO2IusC0mniW7T3HgdCIATauU5pWu9ejaKITaFQKdnNOi6botOCLiCewHugAxwEbgUWPMbrs0twN7jDHnRaQ78I4xptW1zqstOEVXlsXQ6dMVlCrhzU/P3OGSvwaUUsVHZpaFFfvimLHhGCv2x5Flm83S21OoFRxIvZCS1kdF67+hZUoUub9rV4KZeNuM5NbJOc8lpQPg6SG0qFGWro1CuKtRiNsNtnZWC05L4KAx5rAtEzOB+4HLAY4x5k+79OuBKo7MpCpcC7bFcuRsMqP73lrk/ggopVR2Xp4edG5Ykc4NK5KWmcWh00nsO3WRfScT2XfyIhujzvHT1uOX0wf6elG3YiD1QkpRP6QkdSuWpH5IScoGFM7svcYYYuNT2GlbWiWnYKZOhUA61a9AkypXllfRCTnzJy8BTigQbbcdA1yrdeZx4LecDojIUGAoQLVq1fKYRVVYjDGMXx3Ff3/bQ6PKpejWKMTZWVJKqXzx9fKkYeVSNKxc6qr9F1Mz2H8ygb0nE9h/yvrvrztOMGPDsctpKpT0pVyAD16egqeHB94egqeH5Ljt5eGBV7ZtTw+x7vMUvO22vTytac8np19eK+58cgYAXh5CnYol6dygwuW14hpoMOMQeQlwcvoJn2O/loh0wBrg3JnTcWPMOGAcWLuo8phHVQhS0rP4x9ztLNh2nG6NQvikT1O9BVMp5TZK+XkTXqMc4TXKXd5njOF0Qpo16DmZwL5TCVxMySDTYsi0GLIsFjKzDKkZFjItWZe3rccMmRYLWVmGjEvbWRayLFe2s7It/OblIdStWJK7GobQuIp18dv6ISU1mCkgeQlwYoCqdttVgOPZE4nILcB4oLsx5qxjsqcKQ/S5ZIZO3cTekxd5pWs9nm5fS7umlFJuT0SoWMqPiqX8aFc32OHnN+ZSIGR9+Hh6FOm5aNxNXgKcjUAdEQkDYoFHgL72CUSkGjAPGGCM2e/wXKoCs/pAHM/N2ILFYpgwuIWuNaWUUg4iYuu+0gYap7hugGOMyRSRZ4FFWG8Tn2CM2SUiw23HxwJvAeWBr2y//DMdPRpaOZYxhm9WHeaj3/dSp0JJvhnQnBpBAc7OllJKKeUQOtFfMZScnskrP2znl+0nuLtJJT566BYCfHVSa6WUUs6hSzWom3b0bBLDpm5i/6kEXuten2ERNXW8jVJKKbejAU4xsmLfaUbM2IKIMGlISyIKYFCdUkopVRRogFMMGGP4asUhPlm8j3oVSzJuQDjVyhfPxemUUkoVDxrgFANfrzzEx4v2cW/Tynz4YBP8ffRjV0op5d70m87N/b7zJB/9vo/7mlZm1CPNdLyNUkqpYkFnHHJjO2Mv8MKsrTSrWoaPHrpFgxullFLFhgY4bup0QipPTomkrL834wY216nAlVJKFSvaReWGUjOyGDplE/HJGfzwVBsqlPRzdpaUUkqpQqUBjpsxxvDqD9vZGh3PNwOa06hyaWdnSSmllCp02kXlZkYvO8iCbcd5tVs9ujYKcXZ2lFJKKafQAMeN/LrjBJ/+sZ8Hbg3lqXa1nJ0dpZRSymk0wHETO2Iu8OLsrTSvXpb/PthE75hSSilVrGmA4wb2nrzIY5M3Uj7Al28GNMfXS++YUkopVbxpgOPi1h06S++v1+EpwqQhLQgK9HV2lpRSSimny1OAIyLdRGSfiBwUkddyOF5fRNaJSJqIvOz4bKqc/LL9BIMmbKBiaT/mPX07dSqWdHaWlFJKqSLhureJi4gnMAboAsQAG0VkgTFmt12yc8AIoGdBZFL93aS1Ubz7826aVyvL+EHhlPH3cXaWlFJKqSIjLy04LYGDxpjDxph0YCZwv30CY8xpY8xGIKMA8qjsGGP48Pe9vLNwN10aVGTaE600uFFKKaWyyctEf6FAtN12DNDqRt5MRIYCQwGqVat2I6co1jKyLPxj7nbmbY6lb6tq/Ov+xnh66N1SSimlVHZ5acHJ6RvU3MibGWPGGWPCjTHhwcHBN3KKYispLZMnJkcyb3MsL3apy/s9NbhRSimlcpOXFpwYoKrddhXgeMFkR+XkcFwiz0zfwr6TF/nggSY80lJbv5RSSqlryUuAsxGoIyJhQCzwCNC3QHOlLvtpayz/nLcDHy8Pvhvcgg71Kjg7S0oppVSRd90AxxiTKSLPAosAT2CCMWaXiAy3HR8rIiFAJFAKsIjI80BDY8zFgsu6e0vNyOLdhbuZseEY4dXL8sWjt1K5TAlnZ0sppZRyCXlaTdwY8yvwa7Z9Y+2en8TadaUc4FBcIs98v5m9JxN4qn0tXuxSF29PnZNRKaWUyqs8BTiq8Py4JZZ/zt+Bn7cnk4a0oL12SSmllFL5pgFOEZGUlsl7C3czKzKaljXK8cWjtxJS2s/Z2VJKKaVckgY4TnbkTBJT1h1lzqZoEtMyeaZDLV7oXBcv7ZJSSimlbpgGOE5gsRhWHohj8p9HWLEvDi8PoXuTSjx2Rw1urVbW2dlTSimlXJ4GOIXoQkoGP2yKYeq6Ixw5m0xwSV+e71yHvi2rUaGUdkcppZRSjqIBTiHYdzKBKeuOMH9LLMnpWTSvXpYX76pHt0Yh+HhpV5RSSinlaBrgFJDMLAtL9pxi8p9HWXf4LL5eHtzfrDID29SgcWhpZ2dPKaWUcmsa4DjY2cQ0Zm6M5vv1Rzl+IZXQMiV4rXt9Hg6vStkAXfVbKaWUKgwa4NwgYwznkzM4ejaJY+eSOXo2mX2nEvhj9ynSMy3cUbs879zXiE4NKuqimEoppVQh0wDnGiwWw4mLqdYg5mwyR88lc+xsMkds2wlpmVelDynlx8PhVRl0e3VqVyjppFwrpZRSqtgHOKkZWcSct7bAHD2bbGuNSeLouWRizqWQnmW5nNbbU6hS1p9q5fxpXr0s1cr5U718ANXLW/f5eXs68UqUUkopdUmxCHAupGTYWmCSrEGM7fmxs8mcuJiKMVfSBvh4Uq18AHUrlKRLg4pXBTCVy5TQ7iallFLKBbhcgGOMIS3TQlJaJsnpWSSmZZKUlmn7N4uE1AxizqfYupOsLTHxyRlXnSMo0Ifq5QNoXbM81cr72wIYayBTPsAHEQ1ilFJKKVfmtAAnITWTX7afuBycJKdnkpiWRZItYElKtwYslwIY6z7r8UyLuea5PQRCy5agerkAejSpRPVyV4KYauX9CfR1ubhOKaWUUvmQp296EekGjAI8gfHGmA+yHRfb8R5AMjDYGLP5Wuc8cjaJZ6ZfncTH04MAX08CfL0I8PEiwNeTkn5eVCrth7+PF4GXjvl6EeBjfR54adv3ynbFUn5461pOSimlVLF13QBHRDyBMUAXIAbYKCILjDG77ZJ1B+rYHq2Ar23/5qpWcCDzn48gwNeTQF8v/H28dFZfpZRSSjlEXlpwWgIHjTGHAURkJnA/YB/g3A9MMcYYYL2IlBGRSsaYE7md1N/Hk3oheiu1UkoppRwvL00moUC03XaMbV9+0yAiQ0UkUkQi4+Li8ptXpZRSSqk8yUuAk9MtRdlH+eYlDcaYccaYcGNMeHBwcF7yp5RSSimVb3kJcGKAqnbbVYDjN5BGKaWUUqpQ5CXA2QjUEZEwEfEBHgEWZEuzABgoVq2BC9caf6OUUkopVZCuO8jYGJMpIs8Ci7DeJj7BGLNLRIbbjo8FfsV6i/hBrLeJDym4LCullFJKXVue5sExxvyKNYix3zfW7rkBnnFs1pRSSimlbowYc+1ZgQvsjUUSgH1OefOiIwg44+xMOFFxv37QMgAtg+J+/aBlAFoG9YwxDp07xplrFuwzxoQ78f2dTkQii3MZFPfrBy0D0DIo7tcPWgagZSAikY4+p04drJRSSim3owGOUkoppdyOMwOccU5876KiuJdBcb9+0DIALYPifv2gZQBaBg6/fqcNMlZKKaWUKijaRaWUUkopt6MBjlJKKaXcjkMCHBGpKiLLRWSPiOwSkZG2/c1EZL2IbLWtIt7Str+lbd9WEdkmIr1yOW85EflDRA7Y/i3riPw6WgFe/zsiEmuXtkdhXld+5LcM7F5XTUQSReTlXM7rlnXA7nXXu363rQMiUkNEUuyubWwu53WJOgAFWgYuUQ9u5P+BiNwiIuts6XeIiF8O53XbOmA7lpcycIk6ADf0/6Cf3XVtFRGLiDTL4bz5qwfGmJt+AJWA22zPSwL7gYbAYqC7bX8PYIXtuT/gZffa05e2s533I+A12/PXgA8dkV9HPwrw+t8BXnb29RVEGdi9bi4wJ7frdNc6kI/rd9s6ANQAdubhvC5RBwq4DFyiHtzA9XsB24Gmtu3ygGcxqwN5LQOXqAM3UgbZXtsEOJzLefNVDxzSgmOMOWGM2Wx7ngDsAUIBA5SyJSuNbYVxY0yyMSbTtt/Pli4n9wOTbc8nAz0dkV9HK8Drdxn5LQMAEekJHAZ2XePUblkHIM/X7zJupAzyyCXqABRoGbiEG7j+u4DtxphtttecNcZk5XBqd64DeS0Dl3GT/w8eBWbkcur81YMCiNxqAMdsF9HA9jwaiAWq26VrhfUPeyLQK5dzxWfbPu/syLSQr/8d4AjW6H4CUNbZ1+eoMgACgHVAINf4ZeKudSAf1+/OdaAGkARsAVYCbd2lDhRAGbhcPcjj9T8PTMW6mPNm4NViWAfyWgYuVwfyWgbZ0h8CGjuiHjj6QgKBTcADtu0vgAdtz/sAS3J4TQNgA+B3sxfj7EcBXH9FrCu4ewDvY13J3enX6YgyAD4B+tiev4ObBDgFcP3uXAd8gfK2581tf/RKuXodKKAycKl6kI/rfxmIwroOkz/WoL9TMasDeS0Dl6oD+SkDu/StgB3XOF++6oEjL8QbawT6ot2+C1yZa0eAi7m8djkQnsP+fUAl2/NKWNevcvqHVljXny1NDfLQV+8qZQCsxvpr5AgQD5wDni0udSCv1+/OdSCH165w9b8DBVUGrlQP8vn/4BFgkl26N4FXilMdyGsZuFIdyG8Z2B3/DPjnNc6Zr3rgqLuoBPgO2GOM+Z/doeNAO9vzjsABW/owEfGyPa8O1MP6hz67BcAg2/NBwE+OyK+jFdT1i0glu81ewE6HZ95B8lsGxpi2xpgaxpgawOfAf4wxo3M4tVvWgbxevzvXAREJFhFP2/OaQB2sY5Kyc4k6AAVXBq5SD/J7/Vi/AG8REX/b38R2wO4cTu22dYA8loGr1AG4oTJARDyA3sDMa5w6f/XAQZHanVgHD20HttoePWz7NwHbgL+A5rb0A7COP9mKtc+xp925xmP7BYN1NPlSWyEsBco5Oyot5OufCuywnXcBtsi1KD7yWwbZXvsOdl00xaEO5OP63bYOAA/a/h9ss/0/uNeV60ABl4FL1IMb+X8A9LeVwU7go+JWB/JRBi5RB26iDNoD63M41w3XA12qQSmllFJuR2cyVkoppZTb0QBHKaWUUm5HAxyllFJKuR0NcJRSSinldjTAUUoppZTb0QBHKaWUUm5HAxyllFJKuZ3/B6PePyriAs/BAAAAAElFTkSuQmCC\n"},"metadata":{"needs_background":"light"}}]},{"cell_type":"markdown","source":"## Resolving cartesian components\nAlmost entirely out-of-plane contributions due to intense and low-energy $1s \\rightarrow \\pi^{\\ast}$ transitions.","metadata":{}},{"cell_type":"code","source":"plt.figure(figsize=(8,3))\nplt.plot(freqs*eV,sigma,linewidth=2,color='k')\nplt.fill_between(freqs*eV,(sxx+syy+szz)/3.,(syy+szz)/3.,alpha=0.5)\nplt.fill_between(freqs*eV,(syy+szz)/3.,(szz)/3.,alpha=0.5)\nplt.fill_between(freqs*eV,(szz)/3.,alpha=0.5)\nplt.legend(('Total','x-pol.','y-pol.','z-pol.'))\nplt.xlim((eV*min(freqs),eV*max(freqs))); plt.ylim((0,1.05*max(sigma))); plt.tight_layout()","metadata":{"trusted":true},"execution_count":9,"outputs":[{"output_type":"display_data","data":{"text/plain":"<Figure size 576x216 with 1 Axes>","image/png":"iVBORw0KGgoAAAANSUhEUgAAAjgAAADQCAYAAAAK/RswAAAAOXRFWHRTb2Z0d2FyZQBNYXRwbG90bGliIHZlcnNpb24zLjQuMSwgaHR0cHM6Ly9tYXRwbG90bGliLm9yZy/Z1A+gAAAACXBIWXMAAAsTAAALEwEAmpwYAABEtElEQVR4nO3dd1zV9f7A8dfnwGELKKACDlREBQcq7m3lSHPnKDVHGWZ7W868ppV1bXu9/crstmx4s9TKqznI68a9cosoKjhAZX9+f3DgooIc4Czg/Xw8zgPO+X6+3+/705fwzWcqrTVCCCGEEOWJwd4BCCGEEEJYmiQ4QgghhCh3JMERQgghRLkjCY4QQgghyh1JcIQQQghR7jjbO4CC+Pv765CQEHuHIYQQQggHt3379ota64BbP3fIBCckJIRt27bZOwwhhBBCODil1MmCPpcuKiGEEEKUO5LgCCGEEKLckQRHCCGEEOWOQ47BEUIIIcTtMjIyiIuLIzU11d6h2Jybmxs1atTAaDSaVV4SHCGEEKKMiIuLo1KlSoSEhKCUsnc4NqO1JjExkbi4OOrUqWPWOdJFJUQpXbt2jaysLHuHIYSoAFJTU/Hz86tQyQ2AUgo/P79itVxJgiNEKfz0009UrVqV7t27k5GRYe9whBAVQEVLbnIVt96S4AhRQp9++imDBg3i+vXrrF+/njlz5tg7JCGEECaS4AhRAm+++Sbjx48nOzubVr2iAJg1axbbt2+3c2RCCGE9iYmJREZGEhkZSfXq1QkODs57n56eflPZ+fPnc/369SKv2bVrV6ss7isJjhDFkJ2dzQsvvMBLL70EwP0v3s+YOWPp9kA3MjMzGT16dIWc3SCEqBj8/PzYuXMnO3fuJDo6mmeeeSbvvYuLy01lzU1wrKXIBEcp9alS6rxSam8hx7sqpa4opXaaXtPyHeullDqklDqilHrZkoELYWuZmZmMGzeOefPm4eTsxNjXx9B1RFcA+j3Rj8CQ6uzfv58pU6bYN1AhhLCh1atX07x5c5o0acK4ceNIS0vjvffeIz4+nm7dutGtWzcAJk6cSFRUFBEREUyfPt3qcZnTgrMI6FVEmQ1a60jT6zUApZQT8CHQGwgHRiilwksTrBD29MUXX/D555/j5uZK9PxHierdKu+Yi5sLI2eNwuBk4J133mHdunV2jFQIUREopazyKo7U1FTGjBnDt99+y549e8jMzOTjjz/mySefJCgoiD/++IM//vgDgNmzZ7Nt2zZ2797NunXr2L17tzX+s+QpMsHRWq8Hkkpw7dbAEa31Ma11OvAN0L8E1xHCIaxevRqAvk/cR3iHiNuOhzQOoee4nmitGTNmDMnJybYOUQghbCorK4s6deoQFhYGwEMPPcT69esLLLtkyRJatGhB8+bN2bdvH/v377dqbJYag9NOKbVLKbVSKZX7mz8YOJ2vTJzpswIppSYopbYppbZduHDBQmEJYTl//vknAPVb1i+0TO9HelO7US1OnDjBs88+a6vQhBAVkNbaKq/i8PT0NKvc8ePHmTdvHqtXr2b37t306dPH6uMVLZHg7ABqa62bAe8D/zZ9XlA7V6H/5bTWC7XWUVrrqICAAAuEJYTlxMfHc+LECdy93AgKDSq0nJPRiZGzRmF0MfLJJ59w/PhxG0YphBC2lZqayokTJzhy5AiQ05XfpUsXACpVqpTXkn316lU8PT3x8fEhISGBlStXWj22Uic4WuurWusU0/crAKNSyp+cFpua+YrWAOJLez8h7CG39SakSR0MTnf+3yaoXhBNujQBYNmyZVaPTQgh7MXNzY3PPvuM+++/nyZNmmAwGIiOjgZgwoQJ9O7dm27dutGsWTOaN29OREQE48aNo0OHDlaPrdR7USmlqgMJWmutlGpNTtKUCFwG6iul6gBngOHAA6W9nxD2kJvg1G1W16zyTbo2YceqHSxbtoynnnrKmqEJIYRdzJgxI+/72NjY244/8cQTPPHEE3nvFy1aVOB11q5da+HIchSZ4Cilvga6Av5KqThgOmAE0FovAIYAE5VSmcANYLjO6cTLVEo9DvwGOAGfaq33WaUWQlhZTEwMAHUjzUtwGndsjMHJwLp167h06RKVK1e2ZnhCCCFuUWSCo7UeUcTxD4APCjm2AlhRstCEcAwpKSns3LkTg5OBkCYhZp3j4e1BaPNQDm87zMqVK3ngAWm8FEIIW5KVjIUowpYtW8jKyiK4fjBuHm5mn9ekq4zDEUIIe5EER4gi5I2/MbN7KlfTLk0BWLly5W17tAghhLAuSXCEKEJuglMvsl6xzvOv4U9QaBBXr16VlY2FEMLGJMER4g6ysrL473//CxS/BQeQ6eJCCGEnpZ4mLkR5tm/fPq5evUqVwCpUrlb8mVBNuzblt//7jWXLlvHee+8Ve58XIYS4k7+vOmzR6z1zT5hFr2eOtWvXMm/ePH755ReLXldacIS4g5KOv8lVK7wWPv7enDp1il27dlkyNCGEEHcgCY4Qd1DS8Te5DAYDjTtLN5UQonzYunUrTZs2JTU1lWvXrhEREcHevXtvKjNmzBiio6Pp1KkTYWFheS0zqampjB07liZNmtC8efO8XcatRbqohLiD4q5gXJCmXZvy549/smzZMqZNm2ap0IQQwuZatWpFv379mDJlCjdu3GDkyJE0btz4tnInTpxg3bp1HD16lG7dunHkyBE+/PBDAPbs2cPBgwfp0aMHhw9btostP0lwhCiEuRtsFiWsVRgubi5s376duLg4atSoYcEohRDCtqZNm0arVq1wc3PjvffeK7DM0KFDMRgM1K9fn7p163Lw4EFiYmLytm5o2LAhtWvXtmqCI11UQhSiOBts3omLmwuN2jUC4Oeff7ZIbEIIYS9JSUmkpKSQnJxMamoqr776KpGRkURGRuaVuXVChVKKnF2cbEcSHCEKYYnuqVyyqrEQoryYMGECs2bN4sEHH+Sll15i9uzZ7Ny5k507d+aV+e6778jOzubo0aMcO3aMBg0a0LlzZ7788ksADh8+zKlTp2jQoIHV4pQuKiEKUdoZVPk17tgYZVCsWbOG5ORkKlWqVOprCiGErad1L168GGdnZx544AGysrJo3749a9asoXv37jeVa9CgAV26dCEhIYEFCxbg5ubGY489RnR0NE2aNMHZ2ZlFixbh6up603nbtm1jwYIFfPLJJ6WOVdm6ycgcUVFRetu2bfYOQ1RgKSkp+Pr6otG8tf6tYu1BVZh3xr7D0Z1HWbp0KQMGDCh9kEKICufAgQM0atTI3mHc0ZgxY+jbty9Dhgyx+LULqr9SarvWOurWstJFJUQBSrrB5p3Ua5Ez1VySdyGEsD7pohKiAJbsnspVs2FNAGJjYy12TSGEcDSLFi2ydwiAtOAIUaDNmzcDlhlgnCs3wdmxY4fFrimEEKJgkuAIUYDcVpZajWpZ7Jr+Nfxx93Ln3LlznD171mLXFUIIcTtJcIS4xfnz54mPj8fVwxX/mv4Wu65SihoNchb5k24qIYSwriITHKXUp0qp80qpvYUcf1Aptdv02qiUapbv2Aml1B6l1E6llIysFGVC7loOwWHBGAyW/RtAuqmEEMI2zBlkvAj4AFhcyPHjQBet9SWlVG9gIdAm3/FuWuuLpYpSCBvKTXBqNqhp8WvXbCQJjhDCgv6YY9nrdZts2euZYdGiRWzbto0PPvjAotctMsHRWq9XSoXc4fjGfG83AbLRjijTcruPcruTLKlGQ+miEkIIW7D0GJzxwMp87zXwu1Jqu1Jqwp1OVEpNUEptU0ptu3DhgoXDEsJ8uS04ucmIJVWrXQ0XNyMnTpwgKSnJ4tcXQghrmjp1Ku+++27e+1dfffW2DTe7du3K008/Tfv27WncuDFbtmwBcvawGjBgAE2bNqVt27bs3r3bqrFaLMFRSnUjJ8F5Kd/HHbTWLYDewCSlVOfCztdaL9RaR2mtowICAiwVlhDFcu3aNQ4dOoSTsxOB9QItfn0nZyeC6gcD0oojhCh7xo8fz+effw5AdnY233zzDQ8++OBt5a5du8bGjRv56KOPGDduHADTp0+nefPm7N69m9dff53Ro0dbNVaLJDhKqabAJ0B/rXVi7uda63jT1/PAUqC1Je4nhLXs2bMHrTXV61TH6GK0yj1kwT8hRFkVEhKCn58fsbGx/P777zRv3hw/P7/byo0YMQKAzp07c/XqVS5fvkxMTAyjRo0CoHv37iQmJnLlyhWrxVrqlYyVUrWAH4FRWuvD+T73BAxa62TT9z2A10p7PyGsyZrjb3LJTCohRFn28MMPs2jRIs6dO8e4ceMYO3YssbGxBAUFsWLFCiBnWYz8lFIUtPflreUsyZxp4l8D/wUaKKXilFLjlVLRSqloU5FpgB/w0S3TwasBMUqpXcAWYLnW+lcr1EEIi8kbf2ODBEdacIQQZdHAgQP59ddf2bp1Kz179uSzzz5j586deckNwLfffgtATEwMPj4++Pj40LlzZ7788ksA1q5di7+/P97e3laL05xZVCOKOP4w8HABnx8Dmt1+hhCOK68FxwoDjHMFhgbi5OzEoUOHSElJwcvLy2r3EkKUc3aY1u3i4kK3bt3w9fXFycmpwDKVK1emffv2XL16lU8//RSAGTNmMHbsWJo2bYqHh0feWJ78li1bxrZt23jttdJ3+Mhmm0KYZGZmsmfPHgBqhFkvwTG6GAmsF0jcoTh27dpFhw4drHYvIYSwtOzsbDZt2sR3331XaJnBgwczZ87Na/RUqVKFn3766bayY8aMYcyYMQD069ePfv36WSRO2apBCJNDhw6RmpqKX5AfHt4eVr2XrIcjhCiL9u/fT2hoKHfddRf169e3dzh3JC04QpjYYvxNrpoNa7Lpp00y0FgIUaaEh4dz7NixO5ZZu3atbYIpgrTgCGFiixlUuWo1zNmlXBIcIYSwDklwhDCxZQtOUFgQSin27dtHWlqa1e8nhBAVjSQ4QgBa67wWnNxp3Nbk5uFG1dpVyczMZO/evVa/nxBCVDSS4AgBxMXFkZSUhKePJ77VfG1yT1nwTwghrEcGGQvBzeNvrLmyZn41G9Vk26/bZCaVEKLEPtr5kUWv91jkYxa9njm8vLxISUmx+HWlBUcIbDv+Jpe04AghhPVIgiMEtlnB+Fa5ydSuXbvIzMy02X2FEKKkFixYQGRkJJGRkdSpU4du3brddHzRokX079+fXr160aBBA2bOnJl37J133qFx48Y0btyY+fPnWz1W6aISAvu04Hj6eOIX5EdifCKHDh0iIiLCZvcWQoiSiI6OJjo6moyMDLp3786zzz57W5ktW7awd+9ePDw8aNWqFX369EEpxWeffcbmzZvRWtOmTRu6dOlC8+bNrRartOCICu/SpUucOHECo6uRarWr2fTe0k0lhCiLnnrqKbp37859991327F77rkHPz8/3N3dGTRoEDExMcTExDBw4EA8PT3x8vJi0KBBbNiwwaoxSoIjKrxdu3YBEBQahJNzwRvHWUtul5gkOEKIsmLRokWcPHmS6dOns3Tp0rwuq23btgHcNlFDKYXW2uZxSoIjKjxbrmB8q9wWHJlJJYQoC7Zv3868efP417/+hcFgYODAgezcuZOdO3cSFRUFwKpVq0hKSuLGjRv8+9//pkOHDnTu3Jl///vfXL9+nWvXrrF06VI6depk1VhlDI6o8Owx/iZXzUb/S3Cys7MxGORvDiGE+Ww9rfuDDz4gKSkpb3BxVFQUn3zyyU1lOnbsyKhRozhy5AgPPPBAXuIzZswYWrduDcDDDz9c4PibyMjIvN/JpSUJjqjw7NmC4+Pvg4+/D1cuXuHYsWOEhobaPAYhhDDXZ599VmSZqlWr8sEHH9z2+bPPPlvgoOT8a+BYKrkB6aISFVxSUhL79u3DydmJ4LBgu8SQ24oj43CEEMJyJMERFdqaNWvIzs6mbrM6uLq72iUGmUklhCgvxowZU2DrjT0UmeAopT5VSp1XShW4I6DK8Z5S6ohSardSqkW+Y72UUodMx162ZOBCWMKqVasAaNiukd1ikJlUQojisMeMJEdQ3Hqb04KzCOh1h+O9gfqm1wTgYwCllBPwoel4ODBCKRVerOiEsCKtNb///jsAjdraL8HJP5Oqov7iEkKYx83NjcTExAr3u0JrTWJiIm5ubmafU+QgY631eqVUyB2K9AcW65z/2puUUr5KqUAgBDiitT4GoJT6xlR2v9nRCWFFR48e5cSJE3h4e+QlGfZQJbAKnj6eXLx4kbi4OGrWtF8sQgjHVqNGDeLi4rhw4YK9Q7E5Nzc3atQwfzKIJWZRBQOn872PM31W0OdtCruIUmoCOS1A1KpVywJhCXFnud1TDdo0wOBkv+FoSilqNqzJwc0H2bFjhyQ4QohCGY1G6tSpY+8wygRL/FZXBXym7/B5gbTWC7XWUVrrqICAAAuEJcSdOUL3VC6ZSSWEEJZliRacOCD/n5w1gHjApZDPhbC7zMxM1qxZA0DDtg3tHI3MpBJCCEuzRAvOMmC0aTZVW+CK1vossBWor5Sqo5RyAYabygphd1u3buXq1atUrVUVvyA/e4cjCY4QQlhYkS04Sqmvga6Av1IqDpgOGAG01guAFcC9wBHgOjDWdCxTKfU48BvgBHyqtd5nhToIUWy53VMN29m/9QbAv6Y/bp5uxMfHk5CQQLVqtt3VXAghyhtzZlGNKOK4BiYVcmwFOQmQEA4lb/2bNo6R4BgMBoLDgjkae5TY2Fh69brTygxCCCGKIisZiwrn6tWrbNq0CYOTgbCoMHuHk6dWo5zZg9JNJYQQpScJjqhw/vjjD7KysghpEoJ7JXd7h5NHxuEIIYTlSIIjKpy87ikHmD2Vn0wVF0IIy5EER1Q4uQmOI6x/k1+1kGoYXY0cP36cS5cu2TscIYQo0yTBERXKyZMnOXz4MO5e7tSOqG3vcG7i5OxEcFgwkLMvlRBCiJKTBEdUKLmtN2GtwnBydrJzNLfLv/GmEEKIkpMER1QoeevfONj4m1wy0FgIISxDEhxRYWRlZbF69WpAEhwhhCjvJMERFcZXX31FUlIS/sF+BNR0zA1dA0MDcXJ24tChQ6SkpNg7HCGEKLMkwRFlytmzZ/nrr7+Kfd65c+d46qmnAOj1SG+UKmize/szuhgJrBeI1ppdu3bZOxwhhCizJMERZcbPP/9MWFgYjRo14v333ydnl5Ciaa157LHHuHTpEhHtw2nbr62VIy0d6aYSQojSkwRHODytNXPnzqV///6kpKSQlZXFk08+yaOPPkp6enqR53///fcsXboUd083hk8Z4bCtN7lyF/yTmVRCCFFykuAIh3bjxg1GjRrF5MmT0VrT77H7GDP7IVxcjfzzn//k7rvv5sKFC4Wef+HCBSZNytkLtv/TA6gSWMVWoZdYbgvOli1b7ByJEEKUXUXuJi6EvcTHxzNgwAC2bt2Km7sro/82mmbdIwGoWrsanzzzTzZs2ECrVq1YtmwZTZs2ve0aTz31FBcuXKBBqzA6DOpg4xqUTM2GNXFxc2Hfvn0kJCRQrVo1e4ckhBBljrTgCId05coV2rZty9atWwkI9OfZRc/lJTcAtSNq8/yXL1CvcR1OnjxJmzZtGDBgAAsWLOD48eMA/PTTT3z99de4urkyYuoDGAxl48fd6GqkXmRdANasWWPnaIQQomwqG7/xRYXz/fffc/r0aWrWD+a5fz2ft4VBfj4BPjzxyVN06NeO1NRUfvrpJyZOnEjdunVp0KABDz/8MAD3PXGfw04LL0wD0zo9//nPf+wciRBClE3SRSUc0pIlSwDoNLwLlapUKrSc0dXIAzNH0ntiHw5s3M+x/x5i96YDHD58GIB6zerSZVgXm8RsSQ3b5CQ4q1atQmvt8AOjhRDC0UiCIxzOhQsXWL16NU7OTjTr3syscypXr0z7QR1oP6gDWZlZnNh7gtP7TtGiV0sMTmWvoTI4LBgvX09Onz7NkSNHqF+/vr1DEkKIMsWs3/xKqV5KqUNKqSNKqZcLOP6CUmqn6bVXKZWllKpiOnZCKbXHdGybpSsgyp+lS5eSlZVFg9YN8PL1Kvb5Ts5O1IusR9cHu+Ht522FCK3PYDAQ1roBIN1UQghREkUmOEopJ+BDoDcQDoxQSoXnL6O1fktrHam1jgQmA+u01kn5inQzHY+yXOiivPr2228BaNGzhZ0jsa/cbipJcIQQovjMacFpDRzRWh/TWqcD3wD971B+BPC1JYITFU9CQgJr167N6Z7qal73VHnVoE1OC86aNWvIysqyczRCCFG2mJPgBAOn872PM312G6WUB9AL+CHfxxr4XSm1XSk1obCbKKUmKKW2KaW23WnhNlG+/fDDD2RnZ9OoXSM8vD3sHY5d+Qf741/Dn8uXL8u2DUIIUUzmJDgFTd8obBOg+4A/b+me6qC1bkFOF9ckpVTngk7UWi/UWkdpraMCAsrWlF5hObmzp1r0qNjdU7mkm0oIIUrGnAQnDqiZ730NIL6QssO5pXtKax1v+noeWEpOl5cQt4mPj2f9+vUYXZxp2vX2VYkrotxuKklwhBCieMxJcLYC9ZVSdZRSLuQkMctuLaSU8gG6AD/l+8xTKVUp93ugB7DXEoGL8ueHH35Aa02j9uG4e7nbOxyHENYqDKUUMTExXL9+3d7hCCFEmVFkgqO1zgQeB34DDgBLtNb7lFLRSqnofEUHAr9rra/l+6waEKOU2gVsAZZrrX+1XPiiPMmdPdWyR0s7R+I4vHy9qNmwJunp6fz555/2Duc2ycnJZu3oLoQQtmbWOjha6xVa6zCtdT2t9WzTZwu01gvylVmktR5+y3nHtNbNTK+I3HOFuFVcXBx//vknRlcjjTs3tnc4DsURu6muXbvG5MmT8fPzo3v37mRmZto7JCGEuEnZW+JVlEvfffcdABEdI3DzdLNzNI7FkQYaa6357rvvaNiwIXPnziUjI4M///yTefPm2Ts0IYS4iSQ4wiHI7KnC1Y2si7OLM7GxsVy8eNFucRw8eJAePXowdOhQ4uLiqN8ohMHPDgJg+vTpHDhwwG6xCSHErSTBEXZ38uRJNm3ahIubC407SffUrVzcXKgXWQ+tNX/88YddYvjjjz9o2rQp//nPf6jk7cmoVx/gyS+eo/uou+jQvx3p6emMGzdOFiQUQjgMSXCE3f3wQ866kI07N8bV3dXO0Tgme3ZTZWdn88wzz5CRkUGHXq2Z8u9ptB3SIW8T0wHPDaJygC+bNm1i/vz5No9PCCEKIgmOsLuff/4ZgGbdKvbWDHeSO9B41apVNr/3d999x65du6hSrTL3z3gAr8o3b4DqUcmD4VNHADBlyhQOHz5s8xiFEOJWkuAIu7p06RIbNmzAydmJ8A7hRZ9QQdVsWBNPH0+OHz/O9u3bbXbfzMxMpk6dCkCvCb0xuhoLLNe4U2Pa9mlNamoq48ePJzs722YxCiFEQSTBEXa1cuVKsrKyqBdZD49KFXvvqTsxOBlo07cNAO+//77N7rto0SL++usvqtWqStv72t6x7KAXhuDr70NMTAwffPCBjSIUQoiCSYIj7Cq3e6pJlyZ2jsTxdR7WGaUUX3/9NefPn7f6/VJTU5k5cyYA907sg5PR6Y7lPX08GfrKMAAmT55skxiFEKIwkuAIu8nIyGDlypUAsrifGQJqBtC4U2PS09P55z//afX7LViwgLi4OGqG1TB7+n6zbs1o0qkx169f58MPP7RyhEIIUThJcITdxMTEcOXKFaqHVKNqrar2DqdM6DqiKwAfffQRGRkZVrtPcnIys2fnLDze9/H7MBjM/1Vx10N3A/Dhhx/K/lnAl19+yaBBg+wyQFyIikwSHGE3ud1TjaV7ymwN2jQgsE514uPj+fHHH612n/nz53Px4kVCm9UlomNEsc4NbRFKncYhJCYmsmjRIusEWAZkZGTw5JNPMnLkSJYuXUqPHj3o0aMHO3bssHdo4hY3btxg7969aK3tHYqwIElwhF1orVm2LGdTehl/Yz6lFJ2HdwHgvffes8o9EhMT87Ze6Pt4P5RSxTpfKUX30XcB8M4771TIxf/Onz/PPffcw/vvv4+zszO9B3XGy8uDVatW0bJlSx544AGOHTtm7zArPK013377LQ0aNKBJkyYMHDiQs2fP2jssYSGS4Ai7OHjwIEePHsXL15O6TevaO5wypXXf1nh4ubNx40a2bdtm8eu//vrrXL16lYj24dSPql+ia0R2jySgRgBHjx5l6dKlFo7QsW3fvp2oqCjWrVuHv39lnv3kafpOHca0n6czaFQPjEZnvv76axo2bMisWbMqZALoCGJjY+nSpQvDhw/n9OnTKKX46aefCA8P5/PPP5fWnHJAEhxhF7ndU+EdIvJWxBXmcfNwo+2AdoDlp4zv2rWLd999F6UUfR+/r8TXMTgZ6DayGwBvvfVWhfnHYsmSJXTs2JHTp08T3jSUZ758jtrN6gDg6evFXc/2Z/rSafS8rwOZmZlMmzaNHj16cO7cOTtHXnFcvHiRRx99lJYtW7JhwwYq+3oz7dXRfLZiLl3bN+Py5cuMGTOGPn36EBcXZ+9wRSnIvyzCLmR6eOl0GdYFpRTffPONxaZjZ2Vl8eijj5KVlUWXYZ2p1ahWqa7Xtl9bvHw82bJlCzExMRaJ0ZHFx8fz0EMPkZqayt2DOjPhn4/jW7XybeUqB/vR77UHePqjJ6hSxYc1a9bQrFkzGYRsA2lpaXTs2JGFCxdiMBgYO6IHby97jWpD2nCtuhfDP5jAazPHUcnLi5UrVxIREcGvv/5q77BFCUmCI2wuMTGRjRs34uTsRKN2jewdTpnkX8OfJp1zpowvXLjQItdcsGABmzdvpkrVyvSdVPLWm1yu7q50GtoZIG9MT3k2Z84cUlNTadk9koFTh2F0KXjV51yhbRvw/Dcv0bx1OOfPn6dnz55MmTKFzMxMG0Vc8Xz00UccOnSIkJrVWfDdDKJe6MeNSv97TlkK/Pq15O9Lp3NP5xZcvXqVESNGcOLECfsFLUpMEhxhcytWrCA7O5v6LUNx93K3dzhlVpfhXQHLTBmPj49n8uTJAAx+aYjFnkvnYZ0xuhhZtmwZBw8etMg1HdGpU6dYuHAhSil6Texj9nk+AT6M+2giwx7rj1KK2bNn06VLF/766y8rRlsxJSUlMWvWLAD6vjCQ9DpVoJAB9Gn+HgyeP54unSO5fPkyw4cPJz093ZbhCguQBEfYXN708M7SPVUauVPGz549y+uvv16qaz311FMkJyfTrEtTi2566u3nTZu+rYGcGVXl1d/+9jfS09Np1bMlQaFBxTrX4GSg8yM9eO4fTxEQUJmNGzfSrFkzPvjgA4fY0ys1NdXeIVjE7NmzuXTpEk1bN6KhGUsfZCnoO/MBqlfzY/Pmzbz66qs2iFJYklkJjlKql1LqkFLqiFLq5QKOd1VKXVFK7TS9ppl7rqhY0tPT8/q0ZfxN6SilGPjsIJRSzJgxg2+//bZE1/nll1/4/vvvcXN3ZchL9xd7WnhRuo+6C6UUixcvLpeDaY8ePcqnn36KwWCg16P3lvg6IVGhvPjdZO7q044bN27wxBNPcPfdd9u1e+TDDz/Ey8uLli1bsnDhQpKTk+0WS2kcO3aM999/H6UU9z5t/tIHHr6ejJ87DicnA/PmzWP58uVWjlRYUpEJjlLKCfgQ6A2EAyOUUgVt+7xBax1per1WzHNFBbFu3TqSk5MJrBeIf7C/vcMp8yI6RjDo2UEAjBkzhs2bNxfr/JSUFCZNmgRAn4l9qBJYxeIxVgupRtOuTUlLS8vrBitPXnvtNbKysmjTpzXVQqqV6loePp4M+ttInnznUSpX9uaPP/6gSZMmfPrppxaK1nzz58/n8ccfJysrix07dvDoo48SFBREdHQ0sbGxNo+nNCZPnkxGRgad+7SlZjEHzwdFhjDy8YEAPPTQQzKzqgwxpwWnNXBEa31Ma50OfAP0N/P6pTlXlEOyuJ/ldXuwG50GdyQ1NZX+/ftz6tQps87Lzs7mpZde4tSpU9RuWJMupm0grGHAUwMwuhhZtGgR69ats9p9bO3gwYP861//wsnZiV4Telvsug26NeXl71+h811RpKSkMH78eObOnWux6xfl7bff5plnngFgzIvDmDx7PC0jG5CSksI//vEPWrRowdixY8vE9P9NmzaxZMkSXFxduGeS+eOj8osa3ZW27ZuSmJjIiBEjZCB4GWFOghMMnM73Ps702a3aKaV2KaVWKqVyOzjNPVdUAOnp6XzzzTdAzkJwwjKUUtz/0lDCWzckISGB++67r8iuhPj4eHr16sVHH32EwWBg2JQRODnfebfw0qhauyo9x/UAIDo6mrS0NKvdy5ZmzJhBdnY27fu3w7+GZVskvapUYuhbYxg/ZSRKKSZPnmyTJOeNN97g+eefB2D8lAdpNaIzNe5twbjPnuTtH2YwYsTduLu5smjRIqtuF2IJWuu8uvQaeReVq98+bd8cBoOBgbMeICCgMjExMcycOdOSYQorMSfBKaiz8ta0fQdQW2vdDHgf+Hcxzs0pqNQEpdQ2pdS2CxcumBGWKGuWLVvGxYsXCQoNolZ46dZYETdzMjox9q3xBNauxu7duxkxYkShK+T++OOPNGnShFWrVuHt68WEtx+hdkRtq8d499h7CAypzsGDB3nrrbesfj9r27NnD99++y3ORmd6PtzLKvdQStFicDvGzRiVl+TMmTPHKveCnFWsX375ZZRSPDJ9NC0Gt7/puFvdADq+OJBBz+R02TzxxBNcvnzZavGU1tKlS/nzzz/xrexN5zF3lepaXlUq8cicsSileOONN2SrjTLAnAQnDqiZ730NID5/Aa31Va11iun7FYBRKeVvzrn5rrFQax2ltY4KCAgoRhVEWfF///d/ALQb0M7iA1kFeHh7MOHdaCr5eLF8+XKqV69Ov379mDNnDuvWrSMhIYHx48czePBgkpKSaNY+gpeXvEKTrk1tEp/RxcjQV4YBObOOyvpU6OnTpwPQcXCHErcMmKtFvzaMmzkapRSvvPKKVZKcN954g1dffTUnuZn5EJED2hRatu2QDjRsFsrZs2cddlxVeno6L730EgB9ou+1yNIHwS3r0b1POzIyMmRWVRmgiupDVUo5A4eBu4AzwFbgAa31vnxlqgMJWmutlGoNfA/UBpyKOrcgUVFR2hp77Aj7OX36NLVr18bgZOD131/Hq7KXvUMqt47sOMKXr37B+XMXCzzu4urC4KcH0GFYZ7skml9MXcymXzZz99138/vvv5fJZHfr1q20bt0aF1cjM36eiU+Aj03uu+PnLXw6fTFaa15//XWLJRdfffUVDz74IEopHv3bGJrcG1XkOfFH43lj+BtkZmayYcMGOnbsaJFYLOWjjz5i0qRJ1AgJ5MUlk3EyWqYLNik+kVkDZ5GensHWrVuJiir6v5WwLqXUdq31bQ+iyBYcrXUm8DjwG3AAWKK13qeUilZKRZuKDQH2KqV2Ae8Bw3WOAs+1TJVEWZK7eV3Tbk0lubGy0BahTFsxg5m/zGT87LH0GdaN+g1DcHIyUD+8Di98+QIdh3exW2Ix4JmBePl48Z///Ievv/7aLjGUhtaal1/OWfGi8/AuNktuAFrc1/qmlpxZs2aVeqDv+vXrGTt2LAAjnhtiVnIDEFQviF5j7gFgwoQJDjWu6tq1a3mL+t07qa/FkhuAKkF+9BrRHYAXX3yxTAy0rqiKbMGxB2nBKV+ys7MJDQ3l+PHjTPpwEuHtZaUAe8jKzLLqQOLi2Lj0T7587SuqVq3KwYMHqVzZul08lvT777/Ts2dPPCt5MP3nGXj6eNo8hthftvLp9MVkZ2czefJkZs+eXaKE9dChQ7Rr145Lly7Ra0R3+r4wqFjXyUjL4K2hczhzKoGZM2cybdq0ok+ygTlz5vDKK68QFlGHJ794zuLJ/PWr13ntvhkkX73GihUr6N3bcjPoRPGVuAVHiNJau3Ytx48fp0r1yjRs09De4VRYjpLcALTt346w5qGcP3+eYcOGkZKSYu+QzJKdnZ3XenP32HvsktwANO/biglzchagmzNnDs8++2yxWxLOnz/Pvffey6VLl2jdJZI+zw0sdiJgdDUyZErOuKrZs2c7xHYcSUlJvPHGGwD0eryvVVoqPbw9uO+RnKTmxRdfLHRAv7AvSXCE1eUOLm7Try0GJ/mREznTbodPfwDfKt6sWrWKu+++m8TERHuHVaQlS5YQGxtLlQBfupr2ArOXJj2aE/3WIzg7OzN//nwee+wxs7d2uHHjBv369ePYsWOEhddh+JzRJf5/M6xVA7oO6Eh6ejoTJkyw+/YSb7zxBleuXKFZm3AatLXeH1Sth3akeqA/e/fu5YsvvrDafUTJyb82wqouXbrEDz/8gFKKdv3b2Tsc4UCq1a7GU58+Q7WgADZv3kynTp0cepXY9PR0pkyZAkCvR3vj4u5i54ggvFtTJs2PxtXVhQULFjB+/PgiWxO2bNlC79692bx5M9UD/Rnz7iO4uruWKo57n+5H5So+bNiwIe8PGns4c+YM7733HgA9Hy/Zon7mMroYue/x+wCYOnUqN27csOr9RPFJgiOs6quvviItLY0GrRvgF+Rn73CEg6lauypPfvY0tUNrcODAATp06MChQ4fsHVaBPvnkE44ePUpQSHXaOlCyHtahEZPem4ibafG92rVr89xzz7F169a8biutNWvXruWee+6hTZs2rFu3Dm8fLx55Pxof/9IPkvb08WTQC4MBeOGFF4iPL3A1EKt77bXXSE1Npe3dLandOMTq92vaqwWhDWsTFxeXl1gJxyGDjIVVtWjRgtjYWMbOGUtUL5lOKQp27co1/u+phRzadQR/f3+WL19O69at7R1WnpSUFEJDQ0lISOCReY8QeVekvUO6zcmdx/hqyhfEnTmf91m9evUYPHgwMTExbNy4EQBPD3cGDOtGs5Fd8KxiuRmNWms+e3oh29fvZtCgQfzwww8Wu7Y5/vrrLxo1aoTWmle/f5Xqdarb5r6bDjF/4nv4+Phw5EjOz6+wLRlkLGwuNjaW2NhYPL09aNatmb3DEQ7M08eTRz9+jMgOjbl48SIdO3Zk3rx5dh/PkWv+/PkkJCRQr0kdmnV3zJ/l2pF1eXnZVGYtfplhI+7B38+Xo0eP8uabb7Jx40Z8vL0YO3EAr62cRfsn+1g0uQHT7vaTh+Lu4caPP/5o820cpk6dSlZWFp37tbdZcgNQv20Doto35sqVK7KFg4ORFhxhNU888QQffPABXYZ3YehLQ+0djigDsjKyWDbvR/6zZC0A3bt35/PPP6dGjRp2i+nixYvUrVuX5ORknvrnU4RFhdktluLIzswiaecpDq3dg09gZeoPbIWrh5vV7/vnt+v5au63BAYGsn//fnx9fa1+zy1bttCmTRtcXIxM+2m61VeWvtXZv+J5ffgclFLs3buXhg1ltqgtSQuOsKmLFy+yePFiIGdrBiHM4WR0YuDk+5n07kR8K3uzZs0amjZtynfffWeXeLKzsxk7dizJyck0bh9RZpIbAIOzE/5RdejwfD8aP9jJJskNQLv7O9Kwac42DrlbJVjTpUuXGD58OAB3j+hq8+QGILB+EPcM7ERWVlbe5p7C/iTBEVbx2muvcfXqVcLbNaJmg5pFnyBEPuGdG/PSd5Np2bEply5dYujQoYwdO5br16/bNI4ZM2bwyy+/UMnbk/snSyukOQwGA0OmDcPZ2ZmFCxeybt06q90rOzub0aNHc/z4ccIahtBjonVnTt1J1+ieeHq6s3z5clatWmW3OMT/SIIjLO7w4cN8/PHHGAyKAaZdh4UoLm8/b8a+N4FRk4fj6urCokWLaNeuHUePHrXJ/f/9738za9YsDAYDD80Zg38NGTxqrsB6QfR5uCcAjzzyiNWmUM+dO5dffvkFb28vRs4bi9HVaJX7mMPb34d+D+cs/vfcc8/J4n8OQBIcYXGTJ08mMzOTtv3aElw/2N7hiDJMKUXboZ14/ovnCa5Vnd27dxMVFcWKFSuset8DBw4watQoAAY80Y9Gsr1IsXUbew+16gbz119/MWjQIFJTUy16/dWrVzN16lQAxv/tIfyC7Z+AthnRmeqB/uzZs4fPPvvM3uFUeJLgCIuKiYnhxx9/xNXNhT4T+9o7HFFOBNUP5pl/PU+rrpFcvnyZvn37MnPmTKvMsrpy5QoDBgwgJSWFNj2j6P7Q3Ra/R0VgdDEy+s0xVK7sza+//srAgQMtluTExcUxYsQIsrOzGfJwH0I7OUYCanQ1MuDpAQBMmTKF5ORk+wZUwUmCIyxGa81zzz0HQPfRd+Fb1de+AYlyxb2SO6PfHs/gSf2AnPEx/fr14/z580Wcab7s7GxGjhzJ4cOHqR1Wk2HTH7DbruvlQWC9IJ5a+KRFk5z09HSGDh3KhQsXaNkmgi7RvSwUrWU0vieS8Cb1SEhIYO7cufYOp0KTBEdYzJIlS9iyZQs+ft7cLX/1CiswGAx0f7gnj7//GN4+Xixfvpzw8HC++OKLYm82easrV64wduzYvEHF495+uNRbGAgICA20WJJz9uxZBg8ezH//+1+qVavC/a+PdLj97ZRS9H1+EABvv/02x48ft3NEFZdj/WSIMistLY3JkycDcO/EPrjZaEqqqJgadgjn+S9fpHmbCBITExk9ejS9e/fm5MmTJbrezz//THh4OIsXL8ZodOahuTKo2JIKSnKKM/BYa83ixYuJiIjgl19+wdPDnXFvjadSFW8rRl1ytZuG0LVXG9LS0hg+fDjp6en2DqlCkgRHWMSHH37I8ePHCawbKJtqCpvwC/Zj/McTGT9zNN7envz2229ERETw7rvvmv0PyoULFxgxYgT9+vUjPj6e8Cb1ePnrl2nUzjHGdJQntyY5tWvX5tVXX+X06dN3PO/06dP06dOHhx56iEuXLtG5XVNm/ziNGk1CbBN4Cd370iACq/uzZcsWXnzxRXuHUyHJSsai1OLj44mIiODy5ctMfG8ijTs1tndIooK5mniVX974gT9X5fze8PLyonv37vTq1YuePXtSt25dADIzMzl27BgHDx5kz549/P3vfycxMRE3N1eGPNGfNsM6OVyXR3lz4eg5vn31Cw4cOgHkdDsOGDCASZMm0aBBA86cOcOZM2eIi4vj5MmTLFy4kOTkZCpV8mTS88Oo2bcFGMrGuKgLe0/zt7HzyMzM5Pvvv2fw4MH2DqlcKmwlY0lwRKmkpaXRtWtXNm3aRHi7Rjz24SQZlCnsZv8fe1j54XKOHb25VSA0NBSj0ciRI0fIyMi46Vjz1uEMmDIU/5oBtgy1YtOa1F2nWf31Wn5bva3INWO6d27BgKnDcPK37P5ZtrDnqw0seOsbvL292bFjB/Xq1bN3SOVOqRIcpVQv4F3ACfhEaz33luMPArlrcqcAE7XWu0zHTgDJQBaQWVAQt5IEp2zQWjNhwgQ++eQT/KpX4YUvX6RSlUr2DksILp1N4vSmvzi08QDbN+8nOfla3rHq1f2pFRJIjTrVCGpeh4Z3N5Ok3I6cLl5j53cx/PTTf0lNSycwoArVq1amWlVfAqp6E9Q0BK+29VCGstmyprXmh+c+448/ttO8eXM2btyIm5uMUbSkEic4Sikn4DBwDxAHbAVGaK335yvTHjigtb6klOoNzNBatzEdOwFEaa0vmhusJDhlw4IFC5g4cSIurkae+fRZaoXXsndIQtwmKzOLc4fiMDg7UaVWgMyMclCuGDCiuK6zyC5n+WZa8g3+PuJNTp85T3R0NB9//LG9QypXSrPZZmvgiNb6mNY6HfgG6J+/gNZ6o9b6kuntJsB+W/8Km4iJieHJJ58EYMTUByS5EQ7LydmJ4IjaBDaoIcmNA0sjmxTKX3ID4FrJnQnzHsFoNLJgwQL+8Y9/2DukCsGcBCcYyN+hHWf6rDDjgZX53mvgd6XUdqXUhOKHKBxNXFwcQ4YMISMjg+4Pdqd1n9b2DkkIIRxalYZBRL+Ys+t5dHQ006dPL/XaTeLOzElwCsqnC3wqSqlu5CQ4L+X7uIPWugXQG5iklOpcyLkTlFLblFLbLly4YEZYwh5SU1MZPHgwCQkJNGzdIG9ZciGEEHfWcEhbXnppJAaDgddee40xY8bIGjlWZE6CEwfUzPe+BhB/ayGlVFPgE6C/1jox93Otdbzp63lgKTldXrfRWi/UWkdpraMCAmQ2gyO6dOkSvXr1YsuWLfgH+jF27jicnJ3sHZYQQpQZtYa15e23J+Hm5sbixYvp3bs3ly9ftndY5ZI5Cc5WoL5Sqo5SygUYDizLX0ApVQv4ERiltT6c73NPpVSl3O+BHsBeSwUvbOfkyZN07NiRdevWUTnAl0ffi8arctmbsimEEHalFC5dG/LeJ8/j71eZNWvW0KFDB06cOGHvyMqdIhMcrXUm8DjwG3AAWKK13qeUilZKRZuKTQP8gI+UUjuVUrlToKoBMUqpXcAWYLnW+leL10JY1c6dO2nXrh379+8nuG4Qz37+HEGhQfYOSwghyqyMiEDe+uJlQkNqsH//fiIiIpgyZQpXrlyxd2hlxpUrV3jzzTcLPS4L/Yk7+u233xgyZAgpKSk0jApj/NuP4OHtYe+whBCiXPBKzuSraf/it7VbAfDz8+OVV17hsccek/VyCnHmzBneffddFixYQHJyMkCJp4mLCigrK4u///3v9OnTh5SUFFr3bkX0h49JciOEEBaUUsmZUfMfZsk/X6Bls3ASExN57rnnCAsL4+OPP+bs2bP2DtFh7N+/n3HjxlGnTh3eeustkpOTiWzTsdDy0oIjbrNnzx4efvhhtmzZAkDPsT3o+/h9GMroSqJCCFEWBGPkyupdzPp4OUeOnsj7vHnz5vTp04d7772X1q1b4+RUcSZ3nDt3jh9++IElS5awfv16AJTBQGSnHkwa2Y8hnZvg26CT7EUl7iw1NZXZs2czd+5cMjMz8atamcEv30+zbs3sHZoQQlQMWlM324Xjv2zmm9/3sGn7LtLT0vIOV6pUidq1axMUFERwcDDBwcFUr14do9GI1jrvBWA0GnF3d8fd3R03Nzfc3d3x9/cnLCwMV1fHXfTyzJkzLFu2jCVLlrBu3br/1cfFlfY9B/Dig3dzV2AK6DQu1WxFYL27JMERBdNas2bNGiZNmsShQ4cA6Da0M32e6Ie7l7udoxNCiIrHoKGOwZXAlBsc3nSAXzadYNV/dxF/5kzpr20wEBoaSnh4OOHh4URERNCiRQvq169v89YhrTXHjx9n/fr1rF+/nnXr1nHs2LG8405GI42iOtHzrk6M7lSXCJdzJBtd2O1ZiUOkU9+vEd1qdZMER9xMa83KlSuZPXs2GzduBCC4biDDpo6gXqTseCuEEI5AaahucCEkS+Ny9gJJCZc4e+E6pxJvcPpiCmeTksnM1ijTury5m8emZ2aRmp5BaloGN9LSSU1LJzExiXPxcejs7Nvu4+XlRWRkJC1btqRly5aEhYVRt25d/P39S70hrdaapKQkDhw4wP79+9m3bx/79u1j7969JCQk3FTW1cOT0Cat6H1XB0Z1CqWhexJO2Wmc8fRht6srp7JTwRRPuF94oQmOc6kiFmVSdnY2P/74I6+//jqxsbEAVPLxotvIbnQffRdGF6OdIxRCCJFLKzir0zlrAIJ9IdgXZxRBypkwFJ4onHTOtgPKlOYoNE4ajIBRa4xa45ydhWd2Fq5Xk/nrTDKxJ6+y52Qie47EceDQXySdP0dMTAwxMTE33d/Ly4u6detSt25dAgIC8PLywsvLC09PT7y8vHB2diY1NZW0tDRSU1NJTU0lOTmZs2fP3vRKTU0tsH4elXwJbdqSVpGNuat5XTqF+lCNi0AGpzxusN7Fh5M6gzSyQaflJTdFkQSnAomLi+Nf//oXn332GYcP56zHWNnfh24ju9NhSEfcPGVKohBClAWZaC7rDC7fqZC65auT6Y1/JTwDKlOzuTORWuGXmUHVtOskX0gh5mgymw8nEHv4FKfizpFw9gwpKcns3r2b3bt3lypmVw9PAoJDqBVSl7C6NWlStzrN6/jTtJozvllJaKW56GbgnEsGu5x8idPpZKFzkpoSkASnnLt27Ro//vgjixcvZvXq1XmDtaoG+tNtzF20698Oo6u02AghRIWhFNfI4prOytlJ2xlwdsXV052qdYJ4sHsYz2RkUDkjFc/0dBJuGNh/9gYH469yMTmNqzfSSb6RTsr1NFKup5KZlY2rqwuuLsa8l6ebC4F+3tQIqESNKp7U9vPAz13jnnkV5+x0bjgbueLizhVnA/udDSQoPy5mp5t2k08vZMfL4pEEpxyKj49nxYoVLF++nFWrVnHt2jUAjEZnWnRtRvO+rQhvF46TseJMNRRCCHFnaWRzWqdxWgEugIsrBg9XvKsY8Q32o0W2xkNn46I1rtnZuGZn45KdiZPWaBRaQbZSaBRZSpFqcCLV4MQNg4E4pfhLaa7gyxWdSTq5Y4Cycl6agrf2LgVJcMqBa9eusWXLFlavXs3y5cvZuXPnTcfDmtSjxX2taNmzpSzUJ4QQwmzZClNXWEbuIJ8ceX8f3ymNyDa9TGw8p0kSnDLo3LlzbNq0iQ0bNhATE8OOHTvIzMzMO+7q5krjNg2p36ERER0jqBJYxY7RCiGEELYnCY4Dy8rK4vjx4+zatYsdO3YQGxtLbGws586du6mcwWCgXqPa1G1ej7AOjajfsr6MqxFCCFGhSYLjAJKSkjh69ChHjx7l4MGDHDhwgAMHDnD48GHS0m4fPe7h5U7dRrUJiaxDSIt61GlSR2ZACSGEEPlIgmNlWmsuXLjAqVOnOH36dN7r5MmTHD16lGPHjnH58uVCz/evVoVaoUFUb1iDwAbB1GxYE79gP9kXSgghhLgDSXBKQGvN1atXOX/+POfPn+fChQucP3+ehIQEzp07R3x8/E2LG2VkZNzxem7urlSvWZWAYD/8Q6oRUKca1etWp1pINWmZEUIIIUqgwiY42dnZpKSkcOXKlZtely9f5tKlSze9kpKSSExMzHslJSXdNKi3KF6VPPEPrIJfNV98qlfGq5ovlQMr4x/sT0DNALwqe5V6GWwhhBBC/I9DJzhaazIyMrhx4wbXr1/P+5r7/bVr1256Xb9+nWvXrpGSknLTKzk5Oe919epVkpOTSUlJoTT7cLl7uOFTxRufKpWoVMULz8peePh64unvjU+AD97+3vgG+OLt542Lu4sF/6sIIYQQoigOmeDs2rULLy8vbty4QXYBG4JZipu7K55eHnh4ueNRyR13LzfcK7nj5u2BWyV3XCu54+HtgYe3B56+nnj5euHp44mHj4fs1ySEEEI4MIdMcDIzM/O6gJycnXBxdcHV7X8vF1cjru4uuLi5YDR9dXF3wdndBWc3I66ebri6u+LqkfNycXfBzdMNNw+3nK+ebrh6uGJwkoG6QgghRHlkVoKjlOoFvEvO2oWfaK3n3nJcmY7fC1wHxmitd5hzbkGCw4J59tNnMboacXKW7QSEEEIIUTxFNmEopZyAD4HeQDgwQikVfkux3kB902sC8HExzr2Nk5MTbp5uktwIIYQQokTMacFpDRzRWh8DUEp9A/QH9ucr0x9YrHNG7W5SSvkqpQKBEDPOvT0ogzP+7v7FrYsQQgghKhAvo1ehx8xJcIIhZ0d1kzigjRllgs08FwCl1ARyWn8AUoY1HHbIjNjy8wcuFvOcsq6i1VnqW75VtPpCxauz1Lf8s0edaxf0oTkJTkELtNw6v7qwMuacm/Oh1guBhWbEUyCl1DatdVRJzy+LKlqdpb7lW0WrL1S8Okt9yz9HqrM5CU4cUDPf+xpAvJllXMw4VwghhBDCosyZJ70VqK+UqqOUcgGGA8tuKbMMGK1ytAWuaK3PmnmuEEIIIYRFFdmCo7XOVEo9DvxGzlTvT7XW+5RS0abjC4AV5EwRP0LONPGxdzrXKjUpRfdWGVbR6iz1Ld8qWn2h4tVZ6lv+OUydVWm2KxBCCCGEcESylK8QQgghyh1JcIQQQghR7jhkgqOUqqmU+kMpdUAptU8p9ZTp82+VUjtNrxNKqZ2mz+9RSm1XSu0xfe1eyHVnKKXO5LvGvTasVqFKUN/W+T7fpZQaWMh1qyilViml/jJ9rWzDahXKivV1yOcLxa9zvvNqKaVSlFLPF3LdcvGM851XVH0d8hmX4Gc6RCl1I9+xBYVct1w832LU1yGfL5TsZ1op1VQp9V9T+T1KKbcCrlsunrHpmDn1td0z1lo73AsIBFqYvq8EHAbCbynzNjDN9H1zIMj0fWPgTCHXnQE8b+/6WaC+HoBzvnPP576/5Zw3gZdN378MvGHvulq5vg75fEtS53yf/QB8V1i9ysszLkZ9HfIZl+BnOgTYa8Z1y8XzLUZ9HfL5lrDOzsBuoJnpvR/gVI6fsbn1tdkzdsgWHK31WW3arFNrnQwcIGdVZCBvc8+hwNemMrFa69z1dfYBbkopV9tGXXIlqO91rXWm6bAbhSyeSM62GJ+bvv8cGGDx4EvAivV1WMWts+mzAcAxcn6mC1MunrHpswEUXV+HVJL6mqncPN+yrgR17gHs1lrvMp2TqLXOKuDS5eUZm1tfm3HIBCc/pVQIOS00m/N93AlI0Fr/VcApg4FYrXVaIZd8XCm1Wyn1qaM0BeZnbn2VUm2UUvuAPUB0vgQgv2o6Zz0iTF+rWi3wErJwfcHBny+YV2ellCfwEjCziMuVi2dcjPqCgz/jYvzOqqOUilVKrVNKdSrkcuXi+ZqYU19w8OcLZtc5DNBKqd+UUjuUUi8Wcrny8ozNrS/Y6Bk7dIKjlPIip8n6aa311XyHRlDAXwZKqQjgDeDRQi75MVAPiATOktO85jCKU1+t9WatdQTQCphcUF+no7NCfR36+UKx6jwT+LvWOsWW8VmaFerr0M+4GPU9C9TSWjcHngW+Ukp52y5Sy7BCfR36+UKx6uwMdAQeNH0dqJS6y2aBWogV6mu7Z2yLfrCSvAAjOQsEPnvL585AAlDjls9rkNNH2MHM64dgRp+wo9b3ljJ/AFEFfH4ICDR9Hwgcsnc9rVlfR36+xa0zsAE4YXpdBpKAx8vrMza3vo78jEv5M722gv0/XGB9Hfn5FrfO5Kzcvyjf+6nAC+X1GZtbX1s+Y4dswTH17f0fcEBr/c4th+8GDmqt4/KV9wWWA5O11n/e4bqB+d4OBPZaLOhSKEF96yilnE3f1wYakPMPw62WAQ+Zvn8I+MnCoZeIterrqM8Xil9nrXUnrXWI1joEmA+8rrX+oIBLl4tnbG59HfUZl+BnOkAp5WT6vi5Qn5zxR7cqF8/X3Po66vOF4teZnMSgqVLKw/T7qwuwv4BLl4tnjJn1tekztneGWEhW15GcgaS7gZ2m172mY4vIGYORv/wU4Fq+sjuBqqZjn2D6SwH4gpwxHLvJ+aEKtHddS1jfUeQMxNwJ7AAG5DuWv75+wGrgL9PXKvauq5Xr65DPtyR1vuXcGeSbdVAen3Ex6uuQz7gEP9ODTT/Tu0w/0/eV5+dbjPo65PMt6c80MNJU773Am+X5GRejvjZ7xrJVgxBCCCHKHYfsohJCCCGEKA1JcIQQQghR7kiCI4QQQohyRxIcIYQQQpQ7kuAIIYQQotyRBEcIIYQQ5Y4kOEIIIYQod/4fC8Q7anLOD3EAAAAASUVORK5CYII=\n"},"metadata":{"needs_background":"light"}}]},{"cell_type":"markdown","source":"## Resolving contributions to the spectrum\n- Extract information for each solution vector (one per cartesian component)\n- Sum contributions from each occupied orbital, normalized by all contributions\n- Scale with corresponding cartesian component and sum up\n\n### Note: imaginary part already isolated\n\n### For free-based porphyrin\n- Five categories of carbons:\n  - Connected to nitrogen (4xNH and 4xN) [MOs 4-7 and 8-11]\n  - Bridging [MOs 12-16]\n  - Outer carbons (4xNH-group and 4xN-group) [MOs 17-20 and 21-24]","metadata":{}},{"cell_type":"code","source":"spec_comp = []\nfor occ in np.arange(0,nocc): spec_comp.append([])\nfor i in np.arange(len(freqs)):\n    x_tmp = x_solution[i]; y_tmp = y_solution[i]; z_tmp = z_solution[i]\n    for occ in np.arange(0,nocc):\n        comp_X = np.sum(np.abs(x_tmp[occ*nvirt : (occ+1)*nvirt])) / np.sum(np.abs(x_tmp[:]))\n        comp_Y = np.sum(np.abs(y_tmp[occ*nvirt : (occ+1)*nvirt])) / np.sum(np.abs(y_tmp[:]))\n        comp_Z = np.sum(np.abs(z_tmp[occ*nvirt : (occ+1)*nvirt])) / np.sum(np.abs(z_tmp[:]))\n        spec_comp[occ].append((comp_X*sxx[i]+comp_Y*syy[i]+comp_Z*szz[i])/3.)\nplt.figure(figsize=(8,3))\nplt.plot(eV*freqs,sigma,linewidth=2,color='k')\nmo_conn1 = np.array(+np.array(spec_comp[4])+np.array(spec_comp[5])+np.array(spec_comp[6])+np.array(spec_comp[7]))\nplt.fill_between(eV*freqs,sigma,sigma-mo_conn1,alpha=0.5)\nmo_conn2 = np.array(+np.array(spec_comp[8])+np.array(spec_comp[9])+np.array(spec_comp[10])+np.array(spec_comp[11]))\nplt.fill_between(eV*freqs,sigma-mo_conn1,sigma-mo_conn1-mo_conn2,alpha=0.5)\nmo_brid = np.array(+np.array(spec_comp[12])+np.array(spec_comp[13])+np.array(spec_comp[14])+np.array(spec_comp[15]))\nplt.fill_between(eV*freqs,sigma-mo_conn1-mo_conn2,sigma-mo_conn1-mo_conn2-mo_brid,alpha=0.5)\nmo_out1 = np.array(+np.array(spec_comp[16])+np.array(spec_comp[17])+np.array(spec_comp[18])+np.array(spec_comp[19]))\nplt.fill_between(eV*freqs,sigma-mo_conn1-mo_conn2-mo_brid,sigma-mo_conn1-mo_conn2-mo_brid-mo_out1,alpha=0.5)\nmo_out2 = np.array(+np.array(spec_comp[20])+np.array(spec_comp[21])+np.array(spec_comp[22])+np.array(spec_comp[23]))\nplt.fill_between(eV*freqs,sigma-mo_conn1-mo_conn2-mo_brid-mo_out1,sigma-mo_conn1-mo_conn2-mo_brid-mo_out1-mo_out2,alpha=0.5)\nplt.fill_between(eV*freqs,sigma-mo_conn1-mo_conn2-mo_brid-mo_out1-mo_out2,alpha=0.5)\nplt.legend(('Total','Connected (NH)','Connected (N)','Bridging','Outer (NH)','Outer (N)','Rest'))\nplt.xlim((eV*min(freqs),eV*max(freqs))); plt.ylim((0,1.05*max(sigma))); plt.tight_layout()","metadata":{"trusted":true},"execution_count":10,"outputs":[{"output_type":"display_data","data":{"text/plain":"<Figure size 576x216 with 1 Axes>","image/png":"iVBORw0KGgoAAAANSUhEUgAAAjgAAADQCAYAAAAK/RswAAAAOXRFWHRTb2Z0d2FyZQBNYXRwbG90bGliIHZlcnNpb24zLjQuMSwgaHR0cHM6Ly9tYXRwbG90bGliLm9yZy/Z1A+gAAAACXBIWXMAAAsTAAALEwEAmpwYAAB+SklEQVR4nO3dd3hUVf748fe5d2p6A0IPgUAIBAKEJiBNUIpgX7FiQ+zrKir2de3rqqur67quX3TXtazlJ/YCSFGRGnrvISEhhfSp9/z+mCQEMiGFSeW8nmeeJLeekztz53NPFVJKFEVRFEVR2hKtuROgKIqiKIoSaCrAURRFURSlzVEBjqIoiqIobY4KcBRFURRFaXNUgKMoiqIoSptjau4E+BMTEyPj4uKaOxmKoiiKorRwa9euzZFStjt5eYsMcOLi4lizZk1zJ0NRFEVRlBZOCHHA33JVRaUoiqIoSpujAhxFURRFUdocFeAoiqIoitLmtMg2OIqiKIoSCG63m/T0dBwOR3MnRTlNNpuNLl26YDab67S9CnAURVGUNis9PZ3Q0FDi4uIQQjR3cpQGklKSm5tLeno6PXr0qNM+qopKUU5TSUkJXq+3uZOhKIofDoeD6OhoFdy0ckIIoqOj61USpwIcRTkNn3/+Oe3bt2fChAm43e7mTo6iKH6o4KZtqO91VAGOojTQ22+/zUUXXURpaSnLli3jmWeeae4kKYqiKOVUgKMoDfD8889zww03YBgGv5s4CIA//elPrF27tplTpihKS5Kbm0tKSgopKSnExsbSuXPnyr9dLtcJ27788suUlpbWesxx48apwXDrQAU4ilIPhmEwb9487r//fgBeumMmHzx0KXdePAqPx8M111yjemsoilIpOjqatLQ00tLSmDt3LnfffXfl3xaL5YRt6xrgKHVTa4AjhHhbCJEthNhcw/pxQogCIURa+evRKuvOE0LsEELsFkI8EMiEK0pT83g8XH/99bzwwgvous5/Hvodd10wjPXhMTx281QSunVg69atPPzww82dVEVRWrBFixYxaNAgkpOTuf7663E6nbzyyitkZGQwfvx4xo8fD8Att9xCamoq/fr147HHHmvmVLc+dSnBWQCcV8s2y6WUKeWvJwCEEDrwGjAFSAJmCSGSTiexitKc/v3vf/POO+9gs1n58umruWxSCt9Fd+BXzU1a+1j+c/9F6LrGiy++yNKlS5s7uYqinEQI0Siv+nA4HMyePZsPP/yQTZs24fF4+Pvf/86dd95Jp06dWLJkCUuWLAHgqaeeYs2aNWzcuJGlS5eycePGxvi3tFm1BjhSymVAXgOOPQzYLaXcK6V0AR8AMxtwHEVpERYtWgTAszeew1lnJfNpRDR7pROA7UYZnYf048ErxyGlZPbs2RQVFTVnchVFaYG8Xi89evSgd+/eAFx77bUsW7bM77YfffQRgwcPZtCgQWzZsoWtW7c2ZVJbvUC1wRkphNgghPhGCNGvfFln4FCVbdLLl/klhJgjhFgjhFhz9OjRACVLUQLn559/BiBpeDIfhwSRK6t0CxeCpTYL86+eQErvruzfv58//OEPzZRSRVH8kVI2yqs+goOD67Tdvn37eOGFF1i0aBEbN25k2rRpqn1fPQUiwFkHdJdSDgReBf5f+XJ/5XY1vhOklG9KKVOllKnt2rULQLIUJXAyMjLYv38/IcF2dvbtjAOj2jbHpJvN0R34z/0XYbGYeeutt9i3b18zpFZRlJbK4XCwf/9+du/eDfiqvseOHQtAaGhoZclvYWEhwcHBhIeHk5WVxTfffNNsaW6tTjvAkVIWSimLy3//GjALIWLwldh0rbJpFyDjdM+nKM2hovSmz4B4hF7zx2YtLjr1iWPmWYkALFy4sEnSpyhK62Cz2fi///s/Lr30UpKTk9E0jblz5wIwZ84cpkyZwvjx4xk4cCCDBg2iX79+XH/99YwaNaqZU976nPZcVEKIWCBLSimFEMPwBU25wDEgQQjRAzgMXA5ccbrnU5TmUBHgdEuJP+V2hoClISHMGJnI/37axMKFC7nrrruaIomKorRwjz/+eOXv69evr7b+jjvu4I477qj8e8GCBX6P89NPPwU4ZW1TXbqJvw/8CvQRQqQLIW4QQswVQswt3+QSYLMQYgPwCnC59PEAtwPfAduAj6SUWxonG4rSuFasWAFAl4FxtW6bIV0knDMCXddYunQp+fn5jZw6RVEU5WS1luBIKWfVsv5vwN9qWPc18HXDkqYoLUNxcTFpaWnoukZcclyd9tkcFcToAT1Yun4P33zzDVdcoQovFUVRmpIayVhRarFq1Sq8Xi89e3fBFmSr0z5ODEaN803hoNrhKIqiND0V4ChKLSra38Sn9KrXfokTUwH45ptvqs05oyiKojQuFeAoSi0qApxOA+LqtZ+nczj9esRSWFioRjZWFEVpYirAUZRT8Hq9/PrrrwDEDzp1D6qTlWFwzphkQFVTKYqiNLXT7iauKG3Zli1bKCwsJLZjNJEdIuu9f8o5Q+HdH1i4cCGvvPJKveetURQlsF76YWdAj3f3pN4BPZ4SOKoER1FOoaJ6KqGe7W8q2Pt3JzYqlIMHD7Jhw4ZAJk1RlFbiyJEjXH755fTs2ZOkpCSmTp3Kzp2BDbTq6+WXX6a0tLRe+/z0009Mnz7d77r169dz4403Ar7xezRNO2Fy0P79+7N//34A4uLiyMnJ8XvcL7/8MmAzp6sAR1FOoSLA6ZwS16D9c3EzZVQSoKqpFOVMJKXkwgsvZNy4cezZs4etW7fy9NNPk5WV1azpakiAcypPP/30CYMUdunShaeeeqrex5k2bRoLFy4MSNpUgKMop1AR4PQYWL/2N5WEYNiEoYAKcBTlTLRkyRLMZnPldAwAKSkpjBkzBikl8+bNo3///iQnJ/Phhx8CvhKNcePGcckll5CYmMiVV15ZOalnXFwcjz32GIMHDyY5OZnt27cDUFJSwvXXX8/QoUMZNGgQn3/+OeBrR3jvvfeSnJzMgAEDePXVV3nllVfIyMhg/PjxjB8/HoDvv/+ekSNHMnjwYC699FKKi4sB+Pbbb0lMTGT06NF8+umnfvNYVFTExo0bGThwYOWy6dOns2XLFnbs2FGv/5cQgnHjxvHll1/Waz9/VICjKDWomGAzOMROp16dGnycjiOTCLJZWLt2Lenp6QFMoaIoLd3mzZsZMmSI33WffvopaWlpbNiwgR9//JF58+aRmZkJ+Kp8Xn75ZbZu3crevXsrH7YAYmJiWLduHbfccgsvvPACAE899RQTJkxg9erVLFmyhHnz5lFSUsKbb77Jvn37WL9+PRs3buTKK6/kzjvvpFOnTixZsoQlS5aQk5PDk08+yY8//si6detITU3lxRdfxOFwcNNNN/HFF1+wfPlyjhw54jcfa9asoX///ics0zSN++67j6efftrvPuPHjyclJYWUlJTKqq0KqampLF++vG7/4FNQAY6i1KDihtI7OR7tFBNs1uaoFSYN6QnAF198EZC0KYrS+q1YsYJZs2ah6zodOnRg7NixrF69GoBhw4bRpUsXNE0jJSWlsv0KwEUXXQTAkCFDKpd///33PPvss6SkpDBu3DgcDgcHDx7kxx9/ZO7cuZhMvj5FUVFR1dKxcuVKtm7dyqhRo0hJSeGdd97hwIEDbN++nR49epCQkIAQgquuuspvPjIzM2nXrl215VdccQUrV65k37591dYtWbKEtLQ00tLSeOutt05Y1759ezIyTn9ubtWLSlFqUDnB5sAep3UcF5Kx44fw+c/bWLhwIbfccksgkqcoSivQr18/Pv74Y7/rKqqd/LFarZW/67qOx+Optq7qcikln3zyCX369Kl2jtp6b0opmTRpEu+///4Jy9PS0urU89Nut+NwOKotN5lM3HPPPTz33HO1HqMqh8OB3W6v1z7+qABHUWpwfAbx0wtwAHqPH4L29HssXryYoqIiQkNDT/uYiqLUX1N3654wYQIPPvgg//znP7npppsAWL16NaWlpZx99tn84x//4NprryUvL49ly5bx5z//ubJdTX2ce+65vPrqq7z66qsIIVi/fj2DBg1i8uTJvPHGG4wbNw6TyUReXh5RUVGEhoZSVFRETEwMI0aM4LbbbmP37t306tWL0tJS0tPTSUxMZN++fezZs4eePXtWC4Aq9O3bl7/85S9+182ePZvnn3+eoqKiOudl586d1aq8GkJVUSmKH8XFxaxfv75eE2yeSmF0MGf1647L5WLRokWnn0BFUVoFIQSfffYZP/zwAz179qRfv348/vjjdOrUiQsvvJABAwYwcOBAJkyYwPPPP09sbGyDzvPII4/gdrsZMGAA/fv355FHHgHgxhtvpFu3bpXn+e9//wvAnDlzmDJlCuPHj6ddu3YsWLCAWbNmMWDAAEaMGMH27dux2Wy8+eabTJs2jdGjR9O9e3e/505MTKSgoMBvEGOxWLjzzjvJzs6uc16WLFnCtGnTGvBfOJE4VRFZc0lNTZVr1qxp7mQoZ7DFixczceJEevXtxt3/vf/0Dygle178jBf/s4iHHnqIJ5988vSPqShKrbZt20bfvn2bOxlt3ksvvURoaGi1BsP1lZWVxRVXXFHjg6C/6ymEWCulTD15W1WCoyh+VHYPT+kZmAMKQaf+vmOtX78+MMdUFEVpIW655ZYT2g011MGDB2us7qov1QZHUfz47bffAOgywH+RbEOE9YsDYN26dQE7pqIoSktgs9m4+uqrT/s4Q4cODUBqfFQJjqL4UVHK0q1v4AIcb+dwwkNsHDlypHKsC0VRFKVxqABHUU6SnZ1NRkYG9iAbMV1jAnZcQ0Bi766AqqZSFEVpbLUGOEKIt4UQ2UKIzTWsv1IIsbH89YsQYmCVdfuFEJuEEGlCCNVqWGkV0tLSAOjW2zfIViDF940DVDWVoihKY6tLG5wFwN+Ad2tYvw8YK6XMF0JMAd4EhldZP15KmeN/V0VpeSoCnI59Ogf82F2SugEqwFGUZrPkmcAeb/z8wB5PCZhaH0+llMuAvFOs/0VKmV/+50qgS4DSpijNoqL6qHOfwL+Vo8qPqaqoFOXMceTIES6//HJ69uxJUlISU6dOZefOnc2apobMJv7TTz8xffp0v+vWr19f2UV8wYIFaJrGxo0bK9f379+/clqJc845h/z8fH+HCahAt8G5Afimyt8S+F4IsVYIMedUOwoh5ggh1ggh1hw9ejTAyVKUuqsowemSGPgAJ7hbFHarmf3795OXV+Nzg6IobYSUkgsvvJBx48axZ88etm7dytNPP01WVlazpqshAc6pPP3009xxxx2Vf3fp0oWnnnrK77ZXX301r7/+esDOXZOABThCiPH4Apyqo6KNklIOBqYAtwkhzq5pfynlm1LKVCllqr9JuxSlKZSUlLBjxw50k07Hnh0DfnzdbCKxfGZyVYqjKG3fkiVLMJvNzJ07t3JZSkoKY8aMQUrJvHnz6N+/P8nJyXz44YeAr6Rk3LhxXHLJJSQmJnLllVdWzlsVFxfHY489xuDBg0lOTq6c1qGkpITrr7+eoUOHMmjQID7//HMAvF4v9957L8nJyQwYMIBXX32VV155hYyMDMaPH8/48eMB32SdI0eOZPDgwVx66aUUFxcD8O2335KYmMjo0aP59NNP/eaxqKiIjRs3MnBgZRNcpk+fzpYtW9ixY0e17WfMmFHjtA+BFJAARwgxAHgLmCmlzK1YLqXMKP+ZDXwGDAvE+RSlsWzatAkpJV3jO2K2mBvlHAnlDY1VgKMobd/mzZsZMmSI33WffvopaWlpbNiwgR9//JF58+ZVDiGxfv16Xn75ZbZu3crevXsrBx8FiImJYd26ddxyyy288MILADz11FNMmDCB1atXs2TJEubNm0dJSQlvvvkm+/btY/369WzcuJErr7ySO++8k06dOrFkyRKWLFlCTk4OTz75JD/++CPr1q0jNTWVF198EYfDwU033cQXX3zB8uXLOXLkiN98rFmzptrcUZqmcd999/H0009X2z4yMhKn00lubm61dYF02gGOEKIb8ClwtZRyZ5XlwUKI0IrfgcmA355YitJSVAQdHXsHvoFxhS7lY+uohsaKcmZbsWIFs2bNQtd1OnTowNixY1m9ejUAw4YNo0sXX0/OlJSUyvYrABdddBEAQ4YMqVz+/fff8+yzz5KSksK4ceNwOBwcPHiQH3/8kblz52Iy+foURUVFVUvHypUr2bp1K6NGjSIlJYV33nmHAwcOsH37dnr06EFCQgJCCK666iq/+cjMzMRfzcsVV1zBypUr2bdvX7V17du3JyMjo17/r/qqtReVEOJ9YBwQI4RIBx4DzABSyjeAR4Fo4PXyadU95XNCdAA+K19mAv4rpfy2EfKgKAFT0f6mUyM0MK7Qrq8aC0dRzhT9+vXj448/9rvuVHNBVp32QNd1PB5PtXVVl0sp+eSTT+jTp0+1c5R/D9dISsmkSZOqVRulpaXVui+A3W7H4XBUW24ymbjnnnt47rnnqq1zOBzY7fZaj306ag1wpJSzall/I1Btdi0p5V5gYPU9FKXlqgg6GqOBcYXg+HaYdI0dO3ZQXFxMSEhIo51LUZSTNHG37gkTJvDggw/yz3/+k5tuugmA1atXU1paytlnn80//vEPrr32WvLy8li2bBl//vOfK9vV1Me5557Lq6++yquvvooQgvXr1zNo0CAmT57MG2+8wbhx4zCZTOTl5REVFUVoaChFRUXExMQwYsQIbrvtNnbv3k2vXr0oLS0lPT2dxMRE9u3bx549e+jZs2eN7Wb69u1b4/xRs2fP5vnnnz9hpnEpJUeOHCEuLq7e+awPNZKxopTzeDxs2rQJgC69Gy/A0a1mEuM7IqVkw4YNjXYeRVGanxCCzz77jB9++IGePXvSr18/Hn/8cTp16sSFF17IgAEDGDhwIBMmTOD5558nNja2Qed55JFHcLvdDBgwgP79+/PII48AcOONN9KtW7fK8/z3v/8FYM6cOUyZMoXx48fTrl07FixYwKxZsxgwYAAjRoxg+/bt2Gw23nzzTaZNm8bo0aPp3t3/1DWJiYkUFBScEMRUsFgs3HnnnWRnZ1cuW7t2LSNGjKisNmss4lRFZM0lNTVVrlmjBj5WmtaWLVvo378/HTrF8OhXf2zUcy169D0+/eIXXn31VW6//fZGPZeinMm2bdtG3759mzsZbd5LL71EaGho5Vg4p3LXXXcxY8YMJk6cWO/z+LueQoi15U1jTqBKcBSlXEX7m86NMILxybonxQGqobGiKG3DLbfcckK7oVPp379/g4Kb+lIBjqKUq+xB1YgNjCt06KumbFAUpe2w2WxcffXVddq2oi1SY1MBjqKUqxzBuAkCnNCEDggh2LJlC06ns9HPpyiKcqZRAY6i4GvVX1GC0zWxa+OfMMhCQtd2eDweNm9Ww0MpiqIEmgpwFAVIT08nLy+P0PBgIjpENMk5ExNVNZWiKEpjadw+WorSSlSU3nRL7Fqnga0CIS4pDr5fowb8U5Qm9HpaYCd5vDXl1lq30XWd5ORkpJTous7f/vY3zjrrLL/bnnXWWfzyyy/Vls+ePZvp06dzySWX1HiehQsXsnXrVh544IG6Z6ANUwGOonC8/U1sI07RcLKOSWrKBkU5E9jt9sp7zHfffcf8+fNZunTpCdt4vV50Xfcb3NTVjBkzmDFjxukktU1RVVSKQtOMYHyyyPLu6Bs2bDhhGHZFUdquwsJCIiMjAd+s4ePHj+eKK64gOTkZoHJkcyklt99+O0lJSUybNu2EgfK+/vrryhm+77zzTqZPnw7AggULKsfVmj17NnfeeSdnnXUW8fHxldNFGIbBrbfeSr9+/Zg+fTpTp06tcSqJ1k6V4CgKTduDqoI31EL32EgOHMlnx44d9OvXr8nOrShK0ykrKyMlJQWHw0FmZiaLFy+uXLdq1So2b95Mjx49Ttjns88+Y8eOHWzatImsrCySkpK4/vrrcTgc3HzzzSxbtowePXowa1bNsyllZmayYsUKtm/fzowZM7jkkkv49NNP2b9/P5s2bSI7O5u+ffty/fXXN1rem5MqwVHOePn5+ezfvx+L1UyH7h2a7sRC0E81NFaUNq+iimr79u18++23XHPNNZUTbQ4bNqxacAOwbNmyypnGO3XqxIQJEwDYvn078fHxlfucKsC54IIL0DSNpKQksrKyAN8M5pdeeimaphEbG8v48eMDnd0WQwU4yhmvYj6orr06o5v0Jj13fGIcoAIcRTlTjBw5kpycHI4ePQpAcHBwjdv66/BQn+mVqo4sXLFfS5yeqbGoAEc541WOYNyEDYwrdCpvaKx6UinKmWH79u14vV6io6NPud3ZZ5/NBx98gNfrJTMzkyVLlgC+iS337t3L/v37Afjwww/rdf7Ro0fzySefYBgGWVlZ/PTTTw3JRqug2uAoZ7zKOaiasIFxhZgkXxXV+vXrMQwDTVPPHIrSmOrSrTvQKtrggK8E5Z133kHXT11afOGFF7J48WKSk5Pp3bs3Y8eOBXzVXa+//jrnnXceMTExDBs2rF5pufjii1m0aBH9+/end+/eDB8+nPDw8Ablq6VTs4krZ7wBAwawadMm7llwD/ED45v03DqCP55zP5m5RezatYtevXo16fkVpa1ri7OJFxcXExISgpSS2267jYSEBO6+++5675+bm8uwYcP4+eefiY2NbcQUB46aTVxR6igvL48tW7ZgMul0boYqKi+S5D6+qSFUOxxFUerin//8JykpKfTr14+CggJuvvnmeu0/ffp0UlJSGDNmDI888kirCW7qS1VRKWe0xYsXYxgGfQf1xmq31r5DI+jVN47vf9nKunXruOyyy5olDYqitB533313vUpsTtaW291UVWsJjhDibSFEthDC74yAwucVIcRuIcRGIcTgKuvOE0LsKF+nxo5WWpwffvgBgISRic2Whi5JcYAqwVEURQmkulRRLQDOO8X6KUBC+WsO8HcAIYQOvFa+PgmYJYRIOp3EKkogSSn5/vvvAeg9ovkCnPZ9jzc0bolt4hRFUVqjWgMcKeUyIO8Um8wE3pU+K4EIIURHYBiwW0q5V0rpAj4o31ZRWoQ9e/awf/9+QsOC6ZrYtdnSIWLDiAoLIicnh/T09GZLh6IoSlsSiEbGnYFDVf5OL19W03K/hBBzhBBrhBBrKgZAUpTGVFE91X94IprefO3tHUIysLyBs6qmUhRFCYxANDKuPtQiyFMs90tK+SbwJvi6iQcgXYpyShXVUz2G92nmlECfvnEsWbOLdevWMXOmKuhUlMZy9NW/BfR47e64PaDHUwInEI+t6UDV8v0uQMYplitKs/N4PJUT3iU2YwPjCt1VQ2NFabPS09OZOXMmCQkJ9OzZk7vuuguXy1Xrfk8//XRAzv/73/+eZcuWATBu3DhSU48PGbNmzRrGjRsH+HpXVcxMXmH27NmVs41ffvnl7Nq1KyBpagqBCHAWAteU96YaARRIKTOB1UCCEKKHEMICXF6+raI0u9WrV1NYWEjnbh2I7nTqIdObQmySb+I8FeAoStsipeSiiy7iggsuYNeuXezcuZPi4mIeeuihWvdtSIDj9XpP+DsvL4+VK1dy9tlnVy7Lzs7mm2++qfexb7nlFp5//vl679dc6tJN/H3gV6CPECJdCHGDEGKuEGJu+SZfA3uB3cA/gVsBpJQe4HbgO2Ab8JGUcksj5EFR6q2ieqpvCyi9ATB3jSI0yEpGRkblrL+KorR+ixcvxmazcd111wGg6zovvfQSb7/9NqWlpSxYsIDbbz9ezTV9+nR++uknHnjggcopHq688koA/vOf/zBs2DBSUlK4+eabK4OZkJAQHn30UYYPH86vv/56wvk//vhjzjvvxI7Q8+bN48knn6x3XsaMGcOPP/6Ix+Op977NoS69qGZJKTtKKc1Syi5Syn9JKd+QUr5Rvl5KKW+TUvaUUiZLKddU2fdrKWXv8nVPNWZGFKU+KhoYx7eA9jcAhXgZ2KsjoCbeVJS2ZMuWLQwZMuSEZWFhYXTr1o3du3fXuN+zzz6L3W4nLS2N9957j23btvHhhx/y888/k5aWhq7rvPfeewCUlJTQv39/fvvtN0aPHn3CcX7++edq5x85ciRWq7VyAs+qli9fTkpKSuVr4cLjFS+aptGrVy82bNhQ7/9Dc1BTNShnnMLCQlauXImua/RO7d3cyQFACuib6JtZXFVTKUrbIaVEiOp9bmpaXpNFixaxdu1ahg4dSkpKCosWLWLv3r2Ar1To4osv9rtfZmYm7dq1q7b84Ycf9luKM2bMGNLS0ipfM2bMOGF9+/btychoHc1pVYCjnHGWLFmC1+ulT3I89lB7cyenUg/VDkdR2px+/fpx8uTRhYWFHDp0iJ49e2IymTAMo3Kdw+HwexwpJddee21l4LFjxw4ef/xxAGw2W42zk9vtdr/HnDBhAg6Hg5UrV9YrPw6HA7u95dw3T0XNRaWccSqqp3qOaBnVUxU69lMBjqI0tqbu1j1x4kQeeOAB3n33Xa655hq8Xi/33HMPs2fPJigoiLi4OF5//XUMw+Dw4cOsWrWqcl+z2Yzb7cZsNjNx4kRmzpzJ3XffTfv27cnLy6OoqIju3buf8vx9+/Zl9+7dlT2lqnrooYeYO3cu8fHxdc7Pzp076devX523b06qBEc541QEOM05PYM/IT06YLOY2bdvH/n5+c2dHEVRAkAIwWeffcb//vc/EhIS6N27NzabrbKH1KhRo+jRowfJycnce++9DB5cOZ0jc+bMYcCAAVx55ZUkJSXx5JNPMnnyZAYMGMCkSZPIzMys9fzTpk2rcXLNqVOn+q2+qklWVhZ2u52OHTvWeZ/mJFri3Depqany5CI9RQmEAwcOEBcXR0iInaeXPIdu8l+s2xwsCN664ml+25bOokWLmDBhQnMnSVFavW3bttG3b9/mTkazGj16NF9++SURERGndZyXXnqJsLAwbrjhhsAkrAH8XU8hxFopZerJ26oSHOWMUlF603donxYV3AC4kPTvc3ziTUVRlED4y1/+wsGDB0/7OBEREVx77bUBSFHTUG1wlDNKxfg3La39TYWeST3g//2i2uEoihIww4cPD8hxKsbyaS1UCY5yxvB6vSxatAiAPi2s/U2FzqonlaIoSkCoAEc5Y/z3v/8lLy+P2M4xtOta94Z1TSmid2dMusaOHTsoLi5u7uQoiqK0WirAUVqVzMzMBk32duTIEe666y4Apt00tV4DbDWlAougf48OSClbzWihiqIoLZFqg6O0Gl988QVXXHEFZWVlvPTSS9x+++11ClSklNx6663k5+czbnhfBs0Y1gSpbZgiw8PA3p1J253JunXrGDVqVHMnSVHalFVf7A3o8YadX/cxZJSmpUpwlBZPSsmzzz7LzJkzKS4uxuv1cuedd3LzzTfjcrlq3f/jjz/ms88+IzTIxqWPX9NspTfCAIu3lnMLQe++vnY4qieVorQN6enpzJw5k4SEBHr27Mldd91Vp3tXQ2YT9+f3v/89y5YtA2DcuHGkph7vUb1mzZrKQQA3bdrE7NmzA3LOlkAFOEqLVlZWxtVXX838+fORUnL33Bk8/eQNWC1m/vnPf3LOOedw9OjRGvc/evQot912GwC3/f4SiA1rqqRXau+wcFZ6MDPXaYxID6p1+679fE+EVUc0VRSldZJSctFFF3HBBRewa9cudu7cSXFxMQ899FCt+zYkwKmYYbxCXl4eK1eu5Oyzz65clp2dzTfffFNt3+TkZNLT0wPSpbwlUAGO0mJlZGQwduxY3nvvPYLsVp598TZ6zZlM+LTB/PXt+4iNiWD58uUMHTqUjRs3+j3GXXfdxdGjRxk1OIGuFwWmq2SdSMng7GDO32Dm7NVldN5XhLnMQ0xmCSbvqXdtn9QDu9XMli1byMrKapr0KorSKBYvXozNZqvsYq3rOi+99BJvv/02paWlLFiwgNtvPz59xPTp0/npp5944IEHKCsrIyUlhSuvvBKA//znPwwbNoyUlBRuvvnmymAmJCSERx99lOHDh/Prr7+ecP6PP/6Y884774Rl8+bN8zvRJsD555/PBx98ELD8NycV4CgtUkFBASNGjGD16tV0iY3m2XceIHR8EpRXL3n7deLZ9x9mSN/uHDhwgOHDh3PBBRfwxhtvsG/fPgA+//xz3n//fYJsFi7747WgN93bvUupnZ47irAVOhEcr5bS3QYJhacuxSm06YxJ9s0vs3jx4kZNp6IojWvLli0MGTLkhGVhYWF069aN3bt317jfs88+i91uJy0tjffee49t27bx4Ycf8vPPP5OWloau67z33nsAlJSU0L9/f3777TdGjx59wnF+/vnnaucfOXIkVquVJUuWVDtvamoqy5cvb2h2WxQV4Cgt0scff8yhQ4fo27MzD/73QfSE9tW2KYmxc9eC+5g1ZRgOh4PPP/+cW265hfj4ePr06cONN94IwNzbL8LUJbJJ05+QXfNHq1uWUeM6gDzpZuLgXgD8+OOPAU2XoihNS0rpt91fTctrsmjRItauXcvQoUNJSUlh0aJF7N3razCt6zoXX3yx3/0yMzP9zjf18MMP+y3Fad++PRkZGXVOV0umAhylRfroo48AGHrFOGSkrcbtiiww+Znr+WXhk/zjngu5YOxAQkOC2LlzJzk5OaQmxxN/edP2RLJ6NaIyS2pcH5pTSqi75g6MXiTDRvYHfFNLtMT54hRFqZt+/fpx8tyKhYWFHDp0iJ49e2IymTCM4w89DofD73GklFx77bWkpaWRlpbGjh07ePzxxwGw2Wzouv+pZ+x2u99jTpgwAYfDwcqVK09Y7nA4sNvt9clii6W6iSstztGjR1m0aBG6SaffhAG1bl8qvazvGontqsncfrWZ50vKyFi7hTU7DhFy0Xi8TVg1BdAn347mLapxvZDQJ9fKmlhPjdvE9u1BdHgwhw4dYvfu3SQkJDRGUhXljNPU3bonTpzIAw88wLvvvss111yD1+vlnnvuYfbs2QQFBREXF8frr7+OYRgcPnz4hM4FZrMZt9uN2Wxm4sSJzJw5k7vvvpv27duTl5dHUVER3bt3P+X5+/bty+7duyt7SlX10EMPMXfuXOLjj/9Pdu7cSf/+/QOW/+ZUpzu/EOI8IcQOIcRuIcQDftbPE0Kklb82CyG8Qoio8nX7hRCbytepKcKVWn322Wd4vV6ShiUSEhFS5/0cGOyQTn4I0tg5ZgBdb5qJN6rpn0S6ZtYcuFTolOmEU5TM5FmsTBzku+moaipFab2EEHz22Wf873//IyEhgd69e2Oz2Sp7SI0aNYoePXqQnJzMvffey+DBgyv3nTNnDgMGDODKK68kKSmJJ598ksmTJzNgwAAmTZpEZmZmreefNm0aP/30k991U6dOrVZ9tWTJEqZNm9bwDLcgorbibyGEDuwEJgHpwGpglpRyaw3bnw/cLaWcUP73fiBVSplT10SlpqbKk4v0lDPHxIkTWbx4MVf98SpGzhjZ3Mmplw5lFsasKTuhYXFNfh0SRHqQ/+LorsLKkXe/Ys6Ln3HRRRfxySefBDqpinJG2LZtG3379m3uZDSr0aNH8+WXXxIREXHK7ZxOJ2PHjmXFihWYTC2zgsff9RRCrJVSpp68bV1KcIYBu6WUe6WULuADYOYptp8FvF+P9CpKpaysLH766SdMJp2B4wY2d3LqLSHHVKfgBqDnKRoiZ0s3Ewf7SnAWL15cbWwLRVGUuvrLX/5Sp7FtDh48yLPPPttig5v6qkuA0xk4VOXv9PJl1QghgoDzgKqPmxL4XgixVggxp6aTCCHmCCHWCCHWnGrgNqVt++STTzAMg/5nJREUVvugeC2JZkD7jLI6bx99pLTGMXGcGIT36EqPTtEcO3ZMzS6uKEqDDR8+nAEDam/PmJCQ4LetTmtVlwDH3+NoTfVa5wM/SynzqiwbJaUcDEwBbhNCnO1vRynlm1LKVCllqr8ubcqZoaL31IBJg5o5JfXXpyAI3VX3khbdbdD7FGPiZFqDmDykJ6Da4SiKotRXXQKcdKBrlb+7ADV1kr+ck6qnpJQZ5T+zgc/wVXkpSjUZGRksW7YMs8XMgHG1P220NN2P1L8a6VRj4mSYNM4ZrAIcRVGUhqhLgLMaSBBC9BBCWPAFMQtP3kgIEQ6MBT6vsixYCBFa8TswGdgciIQrbc8nn3yClJL+ZyVhD2ld4zBEuEyE5JTWe7+QnFLCXf7ruzOlh3ED4xFCsGLFCkpL6398RVGUM1WtLYmklB4hxO3Ad4AOvC2l3CKEmFu+/o3yTS8EvpdSVh3hrAPwWflojSbgv1LKbwOZAaXt+PDDDwFImTy4li1bnsQcK4LaZwc+WcWYOKs6Vu9aXoIXc/toBiV0Yt3Ow/z8889MmjQpEMkNmKKiIqxWKxaLpbmToih18sv/3gvo8c669Mpat9F1neTkZDweDz169ODf//53rT2aTpaWlkZGRgZTp05tYErPPHUaB0dK+bWUsreUsqeU8qnyZW9UCW6QUi6QUl5+0n57pZQDy1/9KvZVlJOlp6fz888/Y7Ga6X926xpkShgQe7jujYtP1i6n5nFzMq3BTGqB1VQlJSXMnz+f6OhoJkyYgMdT+9g/inKmqphTavPmzURFRfHaa6/V+xhpaWl8/fXXjZC6tktN1aC0CP/73/8AGDCmP7bgmqdmaInii+2YHQ3/grcXlGH3+P8oZphNnDOk5cxLJaXkf//7H4mJiTz77LO43W5+/vlnXnjhheZOmqK0CiNHjuTw4cMA7Nmzh/POO48hQ4YwZswYtm/fDvjuh/3792fgwIGcffbZuFwuHn30UT788ENSUlIqS7uVU1MBjtIitObeUz2yTm9/IaF7sf+gLhMPo/p3x2oxsX79enJy6jxeZsBt376dyZMnc9lll5Genk6XhH7MmOMb2Pyxxx5j27ZtzZY2RWkNvF4vixYtYsaMGYBvpOJXX32VtWvX8sILL3DrrbcC8MQTT/Ddd9+xYcMGFi5ciMVi4YknnuB3v/sdaWlp/O53v2vObLQabWM0H6VVO3DgACtXrsRqs9J/zPHqqTCXTp98OyaPxOQFk1eieySbunjJste/vUtjsHs0wrNrnlizrjrmw/aI6ssLDDfe4GBG9+/OonV7WLJkCZdeeulpn6++lixZwrnnnovb7SYoNJyp1/2BUVMuZmRIJkcP7uTXbz/l+uuvZ8WKFTVO+qcoZ6qysjJSUlLYv38/Q4YMYdKkSRQXF/PLL7+c8Hl2Op2Ab/qG2bNnc9lll3HRRRc1V7JbPVWCozS7imkIBpzdH6vdWrk8OctK3M5CuuwtIvZAETHpxUQeKWFAesv5Au2Tb0eruad3nYXnOPzPTSUEmfYQzhncfNVUhmFw991343a7GTR+Og/861tuv2Qsc4IWM9y9mld+fxFh0e1ZuXIlL7/8cpOnT1Fauoo2OAcOHMDlcvHaa69hGAYRERGVs4OnpaVVloK+8cYbPPnkkxw6dIiUlBRyc3ObOQetkwpwlGb3xRdfANB//PGxb0xe6HDYf7fo8CPFxJZZ/a5ral0y3QE5jtnhoZ3Tf54yzSbOKR/w74cffgjI+erjf//7Hxs2bCAiJpZH5t/DnbEbGev5hSBvMQCDLYe47Z75ADz88MPs3LmzydOoKK1BeHg4r7zyCi+88AJ2u50ePXpUtj+UUrJhwwbA1zZn+PDhPPHEE8TExHDo0CFCQ0MpKipqzuS3OqqKSmlW+fn5LF++HN2kkzQqqXJ5n4JgdLf/D7NAkJyucSShqVLpX4cyC7aCMvwP9l1/3QrNHLVVr3rLQHJpr05EhgWzb98+1q5dy5AhQwJyztp4PB4eeeQRAH5//cVcYPoF4TkxvxqS+0cH8cM5M1jz40JuuOEGli5diqap5yel5alLt+7GNGjQIAYOHMgHH3zAe++9xy233MKTTz6J2+3m8ssvZ+DAgcybN49du3YhpWTixIkMHDiQbt268eyzz5KSksL8+fNVO5w6UAGO0qy++eYbvF4vfYf2Jij0+LQFcYdPXTISfqSY2C5BHLE7GzuJNepVj4k16yImzwvtqy/PM5y4LBaunZzCyx//zKuvvsqCBQsCdt5TWbBgAbt27aJD527cf06nGvMb7snluT9czQXrfmXFihX87W9/484772ySNCpKS1dcXHzC3xWl1gDfflt9aLhPP/202rKoqChWr14d+MS1YeoRS2lWFR/0pLOTK5fFllmxHzv1uDIVpTjNRUhZr4k16yIkr8z/5JtCkGkP5faZIxBC8P7775OdnR3Qc/vjcDj44x//CMDDcy7AZjp1MHe2fR+zf++rqpo/f36TpFFRFKUmKsBRmo3b7eabb74BOGFwvz7ZvpIRd0g0RZ2TcUZ2wWuu3o26OdviJBQGY6rHxJp1oXkl3Ur9T1GRabbQs3M0U0cm4XK5+Oc//xnQc/vzxhtvkJ6eTveevZk7yk/R0klM0sNDE2JIGjaW0tLSBg1mpiiKEigqwFGazYoVKygoKKBTj1jad/N9gVq9GjGHfcW5he0SyTF3JSN8AAc6T+BQj8kc7XE2Hnso0LylOHFZfno8BUDHghoG/BO+rlq/v3A4AK+//jpud2AaOPtTVFTEU0/5Bh5/8ubpmOrYnqaDK505V/u6tb722mtq/izgvffe46KLLmqWBuKKj/TXQ1Fpdep7HVWAozSbyuqpKmPf9M23o3klXlsIhTKscrkAPNJEsQyhuH1i5fLmKMUJduuEBWDsG3+icvy3KcoxXLg0jYmDe9K7e0cyMjL81tMHyssvv0xOTg59+ydzxZCoeu17c7KXuMRkcnNzm6ytUEvkdru58847ueqqq/jss8+YPHkykydPZt26dc2dtDOKzWYjNzf3lF+OhmFQVlamAqEWTEpJbm4uNlvdR7oXLfGCpqamyjVr1jR3MpRGJKUkISGBPXv2cPfbd9NrUC+QkvM3mLEVuSjoNoQ8rYPffTVh0PXgj2he3/QIx2KD+SEhsO1hTmVIdjDxOxqnu6ZE8t0IK0Xm6lM/THdBt5ICXv98Jbf9dSFnnXUWP//8c8DTkJubS3x8PIWFhXzxyjym94+s9zGeW1HMA48+Tc+ePdmxY8cZN/hfdnY2l112GUuXLkU3mRk66ULSln2Do8T3vpk1axZPPvkk8fHxzZzSts/tdpOeno7D4fC7vqSkhPz8fLxeL3a7nejo6DPu/dpa2Gw2unTpgtlsPmG5EGKtlDL15O1VLyqlWWzfvp09e/YQGhFC/ADfTb5rqR1bUSlS1ynQ20ENsbchNUrb9yYkcyvQxD2qpKRTRuOdRyDoVmRhS1T1ACfDbKUbcM3kQcz/14/88ssvrFmzhtTUap/r0/L0009TWFhI6rBhDQpuAG4b3Z4/d+zKnj17+Oyzz7jkkksCmsaWbO3atVx44YUcOnSIsKh2zH70VeKSBjHthntY9ME/WPH5v3n//ff5+OOPeeSRR3jwwQfVF2ojMpvN9OjRo9ry9evXc9ddd7F8+XIAhBBIKYmIiODll1/mmmuuQYjA9ZJUmp6qolKaRWX11KgkNN33Nkw44ruZlLTvg1ee+q1ZYO9cOfBvU7bF6eiwYStq3GkiYvP8R3aZmm95iN3K9VN84+C8+uqrAT33hg0b+Otf/4oQgpduGt/g44RQypW/uxiAP//5z2dM0f9HH33E6NGjOXToEHFJg7j7tU+IS/LNrxYcFsGMOffzwNvfMXTShXg8Hh599FEmT57MkSNHmjnlZ46cnBxuvvlmhgwZwvLlywkOj2TuvQ/yw//+Sf9hYzh27BizZ89m2rRppKenN3dyldOgAhylWVSOXjzW1z08yKMReaQEKX3BS21chhlndNfKv8OPFNPeYWmcxFaRlNH4H5nwXAfCz/QPWYYLt/Cd/46ZwxFC8MEHHwSsO7bX6+Xmm2/G6/Vy8UUXMLpn+Gkd796pCQSFRrBq1SpWrFgRkDS2ZBkZGVx77bU4HA5GTLmMW59/l/Do6tWsUR06M2ves8x5+l+ERESzePFiBg4cqBohNwGn08no0aN58803EZrOxIuvYfkHf+XFaeH07Orit2cv4IEH52MPCeObb76hX79+fsepUVoHFeAoTS43N5dffvkFk0mn78i+APTN883p5GzXHZdhruUIPkXhx4udfaU4jVvM395hITKjuPYNT5Pu8tLRWb0hnSHgULAv6IjvFMXUs/rhcrl48803A3LeN954g99++42ImA68fsOw0z5eF9Mxpl7oK8V54YUXTvt4Ld0zzzyDw+EgedQkLrv7T5gspw64+wwZxb1vfE5Cygiys7M599xzefjhh/F4qldPKoHx+uuvs2PHDtp17s47C97iyztSCIop5cPIcL62SBZFhfHAlHb8+p+nGHTWeAoLC5k1axb79+9v7qQrDaACHKXJff311xiGQZ8hCdhDfOO+xGb5ujwXhlavK69JsQzBG3S8p1XkkRJiHHULjhpi4EEtoCMXn0qXY/6DtZ2W4/n7/QW+ICQQXcYzMjKYP983SN+zf7iadrbTr1ISCB68ZCgms4WFCxeyffv20z5mS3Xw4EFfqYAQnHdN3UdwDotqx83PvO3bRwieeuopxo4dy65duxoxtWemvLw8/vSnPwHw1zsvZGqPY3wbEcoik5dS6RvT6pB08WGIDdnVxi9PTmH06LM4duwYl19+OS5X41ZNK4GnAhylyVVUT/UtH9wv0mnGfqwMd0g0xTLoVLtWUxRzvMu4kDAgo3ECnE6lVsKzGqdruD8xuf6f4g9IF87yMWl8XcY7kZmZydNPP31a57vrrrsoKipi+KjR3DQ84rSOVdXAkHxGTT4fgBdffDFgx21pnnzySVwuFynjptGxR+967avpOpOvuo1bnn+HsOj2/PLLLwwcOJC//e1vGEYApqo/TTX1PmptnnrqKfLz8xk6eCBx5/Tjw2AzGbJ60OJB8ovm4ouoSP710HTate/Ab7/9xkMPPdQMqVZOR50CHCHEeUKIHUKI3UKIB/ysHyeEKBBCpJW/Hq3rvsqZxeVyVdZpJ5e3v+mZb0EgKIrpXe/ykQI9CkM/3hkwKqOYKGfgg5wBB0STld4ABB0rI8RdvRTHi2RvsK9nkxCCl+aegxCCxx9/nA8//LBB5/ryyy/5+OOPsdrsvHPXJDQRuOceDcl9V05ACMG7777bJhvT7tmzh7fffhuhaZx71W0NPk6vAcO4780vGTJxBmVlZdxxxx2cc845zVo98tprrxESEsKQIUN48803W+1s1nv37uXVV19FCMH9f5jJes1VUyfNSkeli+WxkSx44io0XeeFF17gq6++apL0KoFR651MCKEDrwFTgCRglhAiyc+my6WUKeWvJ+q5r3KGWLp0KUVFRXTp2YmYzjEAxGa7MSx2Como9/EquoxXEBIGZAY2wOlebCMkp+lKb8CXj17H/A9otct8PPCZOjyRP912KQCzZ8/mt99+q9d5iouLue0235fy3TfNok9M4IPDSZ0cJI+cgNPprKwGa0ueeOIJvF4vqRNn0r7r6Y1rExQazpX3/5nZj/6NkIgolixZQnJyMm+//XaAUlt3L7/8Mrfffjter5d169Zx880306lTJ+bOncv69eubPD2nY/78+bjdbs4/dxyO/rV3YqjgxMAxIpH5N10IwLXXXqt6VrUidXlUGwbsllLulVK6gA+AmXU8/unsq7RBCxcuBCCpvHoqymnGVlBGcfveyAaWkFTtMg4Qk15MhCtAQzxJSb/9sklLbyp0yvZfTXXYcFJiOh6IPHjhQGbNOAeHw8HMmTM5ePBgnY5vGAb3338/Bw8epEdCH/44o3EGnTMbTh6+/SpMZgsLFixg6dKljXKe5rB9+3b+85//oOkmJp9G6c3JBoyexH1vfsWA0edSXFzMDTfcwLPPPhuw49fmL3/5C3fffTcAF9zyEFfe/2fi+6dSXFzMP/7xDwYPHsx1113XKrr/r1y5ko8++gizxcott0+hQNavEfcR6WLKjZMZNXwIubm5zJo1SzUEbyXqEuB0Bg5V+Tu9fNnJRgohNgghvhFC9KvnvsoZwOVy8cEHHwCQMjEFgF75VpCCIkvtkznWeFzDjDPmeJdxIWFgRmCmb+hZFERwftONklxVUF4poe7qgZoUsCs4ovJvIQTv3D6W1CEpZGVlcf7559dalZCRkcF5553H66+/jtA03r7vIix64zXJm9q5lImX3wzA3LlzcTqbYFDGJvD4449jGAbDzr2Y6I5da9+hHkIiorj2kb9y6V1PIIRg/vz5TRLkPPfcc9x7770AXHrXE5x94TUMmTiD2198j/v++RVjLrwGi83OggULGnW6kECQUlbm5cbLp5LRObRBx9mguXj5j5cRHRPDihUr+OMf/xjIZCqNpC53NH+PrieH7euA7lLKgcCrwP+rx76+DYWYI4RYI4RYc/To0TokS2ltFi5cSE5ODt16daZbUjcAOmQ58YS3q3PX8JoUh8Wd8HfM4SLCXKfZbVxK+u4P7Izh9SEQJOT7D9R2nZQ1s0nn20dn0LlrNzZu3MisWbPwev2n/dNPPyU5OZkffviB4LAIXnz6Ecb1bNiNv66CvQXcce2FtO/Sg+3bt/PnP/+5Uc/XFDZt2sSHH36IyWxm0hW3NMo5hBCMnPY7fnfP05VBzjPPPNMo5wLfKNYPPPAAQgh+94enGDntdyesj+3eiwtveYjzb7oPgDvuuINjx441WnpO12effcbPP/9MWEQkF90wHgcNbLQtBBs7hPGvx65ECMFzzz3H3r17A5tYJeDqEuCkA1UfTboAGVU3kFIWSimLy3//GjALIWLqsm+VY7wppUyVUqa2a9euHllQWot//etfAAybOQIhBDEOM9ZCByUR3U/72EUyBK/1eA8szYAhh61wGkXofQqCsBc0bw+SjjVUUx01nORb7Ccsiw618f0zVxASFs5XX31FbGwsM2bM4JlnnmHp0qVkZWVxww03cPHFF5OXl0efIaN5/51/cMfw+vVca6ixlm1cdudjgK/XUWvvCv3YY768jJh6OZHtOzbquYZNvojL73kGIQQPPvhgowQ5zz33HA899BBCCC6/5xmGn1fz9Bojp11OXNIgMjMzW2y7KpfLxf333w/AvTdewN6w06u2dmBgjOnPpeeOxO12q15VrUBdApzVQIIQoocQwgJcDiysuoEQIlaUT9ohhBhWftzcuuyrnBkOHTrEd999h8mkM3Sab/yWnvkWX/WUXr/Zqv0TlLY7sXtuTHoxqVkhDTpapNNM393NX41izy8l3F97IiHYFVQ9b0mdwvj4qRuIat+RnJwcvvjiCx588EHGjRtHbGwsb7/9NmaLlSvveIClL9/I+eF70GXTlFKFeAq47qxYUs+5AKfTya233toq2nD4s3r1aj777DPMFivnXD6nSc45dPKFjRbk/Pe//60suZk17zmGTr7wlNtrmsZlv/8TusnMG2+80SJHqn7rrbfYvXs3Xbp1Y8Rlw/HU2m+qdpnSxRV3zMBisfDBBx+gJoVu2WoNcKSUHuB24DtgG/CRlHKLEGKuEGJu+WaXAJuFEBuAV4DLpY/ffRsjI0rL9s477yClZPD4gYREhoCUtM9y4orqjEcGpkFwgbl9tQKbuF2F9M+tXwlFpNPM2E1ezGXN35BQIHztlPzYpRl+A4Rz+8Ww6+Mn+OTDfzP3wacYNeNKOvdKQtN0uvbuz9tvvc7/XRxDB7ffwtRGlezexJVzf09QaAQ//vgj77//fpOn4XRJKXngAd+IF6NnXkVYdMPbj9XXyUHOn/70p9MOEpctW8Z1110HwIybHyD1nLr1A4mNS2DCZTcCMGfOnBbVrqqkpKRyUL8Hb5nJblPggviMjqFcf+kEAO67775WG6SfCURLvDipqalSRcZth2EY9OrVi3379nHba7eRdFYS7R1Wxq4uIy9uJAU0bMZqfzoWbcKWe+iEZVJA2oBgdofV3lg4wmVi3CaJufT0RgYOpNIIG18l+x9F9eIyDx0cp+7CXqaHkK3Hst8dSV9TBu3dhxsjmXV2wNKT+z7ZxUcvPUz79u3Zvn07kZGBew80tu+//55zzz0Xe0gYDy7wtWNqaqt/+H988Jf5SMNg/vz5PPXUUw2a+XrHjh2MHDmS/Px8Rs+8mgtvfejE40jJrODVBBklFGlhFBJMvgwh2xvCPlcEbpeTF26ewdHD+/njH//Io48+WvPJmtAzzzzDgw8+SGJiIi+8fw8HCOwoxO2KPNw47WEKi4r4+uuvmTJlSkCPr9SPEGKtlDL15OVqJGOl0f3000/s27ePdrFRJA73jTwcn2/CEIJicXoTOp7s5MbGUN6ranMpXUr8jytToSUGNwD2Y2VE1jB44S57cO37e4vp7trNWLm62YMbgG6u3cw6fyLx/VPJzs7md7/7HcXFjT/HVyAYhlFZejPhdzc1S3ADMHTSBVz1wF/QNJ1nnnmGP/zhD/UuScjOzmbq1Knk5+fTb+QELpg7v1qQND54P6XmIvYH67jMx2gv9jHUu4qZxo8Msmditli59PdPAL6RglvCdBx5eXk899xzADxw+/kckIEvWToaonPndecCvlKcmhr0K81LBThKo6tsXDxjBJqu+aqnjjhxRsfhlYF9C57c2LiC5pUM2+SoccbxlhrcgK+aqucx/+neLTwN7RfSbASCCeaN/O4PTxASEc0PP/zAOeecQ25ubnMnrVYfffQR69evJyy6PWNmXt2saRk0birXPvIKusnMyy+/zK233lrnqR3KysqYMWMGe/fupWvv/r5gST+xa16cpYCO2i6+N0tWaC6+sUg+DDLzz7BQ3o2KJknbTJSpjF4DhzP8vEtwuVzMmTOn2aeXeO655ygoKCA1dTDho3tDA0q2aiUEA66aQKfY9mzevJl///vfgT+HctpUgKM0qvz8fD755BOEEAyfOQKADg4r1mIXJSGNMSSSoLRdgt81uttg1EYPk3bZOWd3EBP2BjF+XxBj9we32OCmQsVkpCcrlV7SgwNbCtYUwty5zEiwcMdL/yWqQ2d+++03xowZ06JHiXW5XDz88MMAnHv1HVhs9lr2aHzJo87h+j++jtli5Y033uCGG26otTRh1apVTJkyhd9++43IDp254Yk3sNpPfCiwaR4m6KtYbLNwzk4b528wc84uOyMyg+lbEEJwmc5PwRammNciMJh+4zxCIqJZvnx55QNNczh8+DCvvPIKAPffNs3vXFOBctQsueeWaQA88sgjlJU1z3hZSs1UgKM0qv/+9784nU76D0skulM0AD3yzBi6hWIaZ+wVf42NK5icHiKOlBCZWUz04WJi0otpf6ioRQc3ALaCshrn2FpjtbTKho6DvRvo3rUTd7z8PrFxvdm2bRujRo1ix44dzZ00v9566y327NlD+y49GHbuRc2dnEp9h57NjX/6R+Xge927d+eee+5h9erVle8LKSU//fQTkyZNYvjw4SxdupSg0AhuevJNwqJOGpZDSs63bWR9iI2e2VbCs0uxFTqJPFJC191F9N9UxNmrywgr0NkdAhOD9hIcFsGFt/qCv3nz5pGR0fQN2ME3bYbD4WDCuDEwqFujn6/T+cPpl9CD9PT0ysBKaTlUgKM0qoqnudQLhgMgpCQ2owxHu7gGT81QG7c044wO7Kiyze1UvamOSBf7Q1pPI90KFsPJebathEe157YX/k1c0iAOHjzI6NGjWbVqVXMn7wTFxcU88YSvrcnU6/+ArgdoKpAASRg0kpuf+RfRHbty+PBhXnzxRYYNG0ZCQgL3338/o0ePZvz48fz4449Yg4KZ8Ls53P/W18R271XtWMOCMnCZ8zlWIonb5X9EbIFg4A4XOz0uwk0H6GE5RsrYKSQNH09BQQF33HFHY2e5ml27dvGvf/0LoWn84dZzya6h9KZTqZWJe+wkFAYhTvPBIE94+cNdvl5nzzzzDDk5Oad1PCWwVICjNJr169ezfv16QsOCGTg+BYA+BcGYHR6K7Y07MFpx+OkPHtjSdMiqubHkb1ZTq2uLA9DdtYfpwVsJDg3n5mfeJnHo2eTk5DB69GheeOGFZm/PUeHll18mKyuLbokDSR41qbmT41ePfkN4cMEP3PnXDxlz4TWERrVjz549PP/88/zyyy8EhUZw3jV38si/lzD9hnsIjYyudowOphKS2MQvmsbQHQZCQkG3IRzrloojqiuGdvwrw+TwMHK/lSUWwRjTOuy6l4vveAyrPZhPP/20yadxeOSRR/B6vcyYMoni3v677kc5zQzf5CIqo4SUDcVcuErj7APBvg4IDQx2zKMTGTssmYKCAjWFQwujuokrjeaOO+7gb3/7GxMuH8fF9/tmvJ662Yq9BA50Gof/mTwCQyDplvETmqvt1ItLJCuG2DkS5P/JdIJHJ7Eor4lTFRg7rEl8XZyI1+vh//39aX7+4r8ATJgwgXfeeYcuXbo0W9pycnKIj4+nqKiIW//8Lr0GDm+2tNSH4fWyZ9Nqtq5cQkT7joyYcinWU/W6k5Jr7ctZFipJ3GMiOqOEko59ybb2qNxEIAnSyrA7cwlJ34QQsKV/CKVRXvoVBfNp2WBWLHyPT//2BB07dmTr1q1EREQ0el5XrVrF8OHDMZktfPPp0+zsUr19VJBHY9JGDUuJ/89PdtcQlsaVNuj8HXZkcdkVTyKEYPPmzSQmJjboOErDqG7iSpPKycnh3XffBWDYBb7GxbGlFoLySymNiacxgxsAiaDkpJGNWzuBIPlwzfNrrTKBpzF6jDSBPs6tnBe8A103cfEdj3HDE28QEhHF4sWLGTBgAP/73/+aJV2GYXDddddRVFREYuqYVhPcAGi6TkLKCGbOnc/Yi2afOrgBhgVlsj9YEplnITqjBHdYO45a407YRiIoMYLIMXeltKPvSzxxRym5Li+F9iIG2zI5a/qsymkcKqZKaEz5+flcfvnlAFx56XSyuoZV28ZsCMZvM9UY3AC0O1RU61ASNSno05Grzx+N1+utnNxTaX4qwFEaxRNPPEFhYSGDzupH1z6+9jBJWWaQgkJr41ZPVci3xGKYAjOreEsRfqSYDmX+u4wX42VzWEwTpyhw+rq2MDnYNz9VvxHjmfePL+g7bCz5+flcdtllXHfddZSWNuwJu6Eef/xxvvzyS4JCw7n4jsea9NxNySo89NG2sdctSNxRgmGykhWdcsp2crn2OAyL3dc7cbeJXzU3iaYtxFicXHb3k+gmM2+++SZLly5ttHQbhsE111zDvn376JbQl9tum0yBPLHDgDBg/G4rQcdOPa+cQDBot7dB7XIcGPzu9pkEBQXx1Vdf8cMPP9T7GErgqQBHCbidO3fy97//HU3TmHLXDACC3TqRGUW4orrglP6/oAPNK3UKOw9oknM1FYEgOb3mUpy1mgen1no/1kmujUwK2gVSEhoZw41/+gcX3/4oZouVBQsWMHLkSPbs2dMkafl//+//8ac//QmhaVw9/0WiO7athutVjbfvZr3dTOougXAb5HYdhlv677VXwSs18jsNAiA0p5T+OcEsDTJznnk9sd16cs4s30w+N910U6N1oX722WcrA9C3n76d7ScXUknJmEPBhGfVLTC2FToZnN2w+esOxdi59xpf+6x77rlHDf7XArTeO6HSYs2fPx+Px8P4mWfRubev7UT/HDuaAQWRPZs0LcdEDJ6g1jdOzKlEHCmuccBCJwZprbgURyDo79rIzODNCAyEEIyacSW/f/Vj2nWOY+PGjaSmpvL11183ajq2bdvG1Vf7BvKbdv0f6JM6ulHP15xiTGWEmdIxHTMRnF9GcZcBFMu6DeFQQATOSN9nvOeuYgwH7An2Mi54PxN/N4cO3Xuxa9cuLrroIhyOU5eg1NeiRYt45JFHAHj44QeJjjdTdNLEsQNyQ+hw0H9PsJrE7Sn2P8FtLTxIRs2eQqfY9mzatIn/+7//q/cxlMBSAY4SUCtWrODTTz/FZrMyYa5vfhYhJZ3SS3GHRFNs1D61QCBJBPkdzqxSnA3CRYnp1E/fLV28aydXBK3CrvmqGzr26M3v//Yx/UZO4NixY0yfPp0//vGPjdLLqqCggAsuuIDi4mJSxk5l/KU3BvwcLckE82bWWCz02ePAFdmJHHPdB+AUQE5kXwxNQ/NKRuzS2CAdRJv2EBfs5NqH/0pIRBTffvstF154YcCCnPT0dGbNmoVhGMy46iauHRPKSnFi1VSk00zCzvpPAaJ5JcP2N2wYgD1WL4/fMhWAhx9+mKKi+gVXSmCpAEcJGCkl99xzDwBTrplERPsIABILQjA5PBTF9G7kpsX+FcnQyqfMtiLySAntaijF8SBZGRrZKgf/q6q96zBXWpYRrfuqN+zBoVz32GtMmf17wNc+ZsaMGWRnZwfsnIZhcNVVV7Fz5046xvfhd39o2CSWrUWCNY9iaxGdj5gxuSTZEf2pbwcAl2GmuPNAAILzyxicE8ISm85401q6xPXglufeCWiQ43K5uOyyyzh69Ci9B43kjZuGsiTIhFEl2cKAkbt8QVdDRGSVklBQ/5GqJdB5xigG90sgKyuLZ599tkHnVwJDBThKwHz00UesWrWKqOhwRl87vnJ5/CE3XmsQhUQ0S7oEkBuZ2GgDCzYHIWFARs1PmTtwsjnc/1ggrUmo5xiX64vpYTkGgKZpTLriFm566p8EhUbw1VdfkZSUxL///e/TDugKCgq47rrrKtt0XP/Ya9WmMGhLBAZnaRvYKkx03VdMUaeBuGXDSi7y9Fg8Qb7BJuN2F2N1aKwPNXFe0HY69ugdsCAnMzOTiy++mF9//ZWImFgWPDGHzWFatYbFg48GE5x/eu1++u12YTbqf8/YL508ftd0AP7yl7+wb9++00qH0nAqwFECwul0Mn/+fACm3zINW5Cvu2WnUl/vheL2zRtgOA1LZbfWtiIyo7jG6RsAVmguDrbCeapOZjEcnC9/or/taOWyxNQx/OH1T+k96Cxyc3O55pprmDJlCgcOHGjQOb744guSkpJ49913MZnNXP3gS226UTHACPth9gbrJB4yYVhCyNM7NPhYEkFu7ECkpLKqarfXgWHOor/tqN8gpz4Nj6WUvPvuu/Tr148vv/wSa1Awf3zyj4THutjFiQNgtndYiNt9+lVD5lI3wzIaEOAKgXtYEhefMwyn08nll1+Oy9V4c2IpNVMBjhIQr732Gvv27SMuvhOp5ZNqAiRmakhdp8DU/KUJubbuGHrT9OBqCkJCyuGaAxwp4HuLIM/S+kshdOllgmfFCUFOVIfO3Pzs21x+7zMEhYbz3Xff0a9fP/7617/W+Qvl6NGjzJo1ixkzZpCRkUH3vin84fX/R58hoxorKy1CqO6it9hGZpkgOr2IY7Gn7hJeF6VGEGWxvolufVVVwSw3S1LFalLtGdWCnO7du/PQQw9x6NChUx730KFDTJs2jWuvvZb8/HwSh57NU//6lMsGeFhhOrFRsWbA8B0SLUBNszruL6qxKvhUjkgXD953KR06dGDVqlXcd999gUmQUi9qJGPltGVkZNCvXz+OHTvGba/cStKYfgC0c1gYu8ZBSWxStQHDmkuUkU34wbbz3pICFg+1kmetebLQMGHi4oIC7F5PE6ascXjRWGQazRbHiRNEFuXn8Olrf2LDsm8BCAkJYcKECZx33nmce+65xMfHA+DxeNi7dy/bt29n06ZNvPTSS+Tm5mKx2Zl63d2MnnEVml5zA+42QUquDP6NzUEu4rcKTDKaw+EDAlK+ahIeuhxchPB6MXTBkiEWPDbJtOIS9pPET6U9OLJ/F+89fx+Hd28FfNWOF1xwAbfddht9+vTh8OHDHD58mPT0dA4cOMCbb75JUVER9pAwLpj7IJOnnMv5ltX8EAp5J1VNjcwIpsuewDbsLY62801fB9SzLVaEMNP1502Mv+vveD0ePv74Yy6++OKApk3xqWkkYxXgKKfF6XQybtw4Vq5cSepZ/Zn9t7m+RplSMnWrjaDcMjJ6TsZltJTJCSWxpbuwZ+9u7oQETEmUnW+SHMhT3IA7CQvn5x2lLXx1e9H4UR/NVme7aus2//IjXy/4K0f27zxhea9evTCbzezevRu3+8QvxYRBI7ns939q81VSFcYF7aOdaTc7yoJI3lRKZvxEnEbgSjajvEcIP7QOgJJIO98kObFqGtPKXBTKrnxZnIQE9m9dx4rP32PD8u8wagm++4+cyCV3Ps7YLl5GeNewPDyiWtVUlxIbI9aXIhrhK21z/xC2RdZ/kMlRhplvF/zAA6/+j7CwMNatW0fPnk07VMaZ4LQCHCHEecBfAR14S0r57EnrrwQqxuQuBm6RUm4oX7cfKAK8gMdfIk6mApzWQUrJnDlzeOutt+jYIYq73ptHaLRvmPTknGAStxVR1i6eI8Etr+1Lh7LdBGXtrH3DViKjRyg/dyk55TaJWBmXn90m6qW9QudHbZTfIAcgPzuTHWtXsGPNcnau/5Wy4sLKdZHtO9G+azztu/Ygvn8qA8ac26Z7SlUVZylgsljO5yEhjE0DV3hvjlq6BfQcAkmXrBWYynwlKenxofzaqRiT0JjsArM7gk/LUvBIX7hdmJvNr19/xKrvPsHtdBDeLpbw6A5EtOtAeHQHuvZJZkDqCKYHbSWMdH4ICSHnpJKbDmUWRm10o7saZ3A9t83E14MlLr1+0ZOO4JJiJ1c9/D7fLl3FoEGD+OWXX7DZGjYlhOJfgwMcIYQO7AQmAenAamCWlHJrlW3OArZJKfOFEFOAx6WUw8vX7QdSpZR1nkdeBTitwxtvvMEtt9yC1Wrmgf+7l/Z9fV2xg9065671orkMsnpOoMxomR/m9o69BB/Z3tzJCAiJZOOAUHaGn/ops6OwMKGoiHB3YAddaw61BTmV23k9HN69Fd1kJqZT9zbdM+pU7Jqbq02LWBYRTLd9OjFZXg51HoshAx/yhooiYvYtr/z7UM9QVnYsRgjBWK+JTmWCrfRkk7M9pbWUHnUzF3KutpJDQRZWmLy4OfE7K8ZhZsxGLyZn41bB1uUhwp8YYWb8wUOkzH2LjIxM5s6dy9///vdGSOGZ63QCnJH4ApZzy/+eDyClfKaG7SOBzVLKzuV/70cFOG3OihUrmDBhAm63mzufuoE+UwdXrpu4N4iow8WUtk8gKyihGVN5ahJo79xPSObWWrdtDbxmjZ8GmU/ZHgfAjGC0RyexMKfVl1x40VhsGs1mx6mDnDOelFwWvI5jtiKOFFlI3lREfvezKBCRjXM6oHPBRqz56ZXLDsWHsrKTb+C9FGwkFx8j2Oshx9SR3XRhk7M9BhqdzcXEagXEiEIi5TFs3nyWR0SyWzqrnSfKaWbsRi8mR+O3L5MClqbaOGqrf4+oFKyYVm1k1O1/x+N288Ybb3DzzTc3QirPTKczm3hnoGoz9/TyZTW5Afimyt8S+F4IsVYIMacuiVVatvT0dC655BLcbjcXXznphOAmvshO5OEivNYgcoJbdl2zALKtcRR3Tm7upASE7jYYtR1MtZTSu5EsMXn4NroDpXpLaRvVMDoGEzwrGGDLau6ktGgjgtKxk81GL/TbXoozulujBTfgf+yprnuLOOuwb56nNOHk3yE2PouMJiPIRX/SuEn7krna/2O6dxG9xFa81qNsD4aPI0L9BjcRLhNnb2qa4AZ8vRZT9/raF9bXBumk08De/OVOXyPjuXPn8thjj7X6wThburrc3fw94vm9KkKI8fgCnKoTt4ySUmYIIdoDPwghtkspl/nZdw4wB6Bbt8DWCSuB43A4uPjii8nKymLo0ETG/v78ynUmLyTvciMQ5HcagrcRir4DTQDZ5q6U9YgkrHA/lpyD9e0s0aLYCp2MORjCkriSWnt97JNOjoSFMtDQ6e4oJcpR0ipLdHQMxnt+RrePZH1Z08xU35p0txQwyLOOheERjNimgWYiOyyphrt44DgNCyUd+55QQtp5XxGjCOXnzsUgBFnSRZYGvwRbaa+FIfH1jPIiAQNw+k1nmEtn7CaJuaxpewaG5JbRtyCUbRH1q6qSAhbZTMw5fxAl0spDL/+bJ554gv379/PPf/4Ti6XtDF/RktTlGygdqNq9oAuQcfJGQogBwFvATCllbsVyKWVG+c9s4DNgmL+TSCnflFKmSilT27VTxc0tUX5+Pueddx6rVq2ic8doLn3uOnTT8X45Q7OCsZS4KGvfi8I6TtbXEgigWIaQEdqfw/GTKOqcjNfcMtsN1UVMejEDcus2I3IZBis1Nx8GmflPdDTLIjtwIDgCt9a6Ah0NydnuXxhqr3ZrOqMlWnOZIX9ibXgUPbKtBOc6yOk8DK9smv50ebZueC0nfpY67Sti7IEQgjxVvn6EIFu6OCpd5cGNf0JK+ucGMWGjxFJ66qrYxpK4q4wQd/3/fyXSy9KIaB6Y1pv/PH07Fpudd999lylTpnDs2LHAJ1SpUxscE75GxhOBw/gaGV8hpdxSZZtuwGLgGinlL1WWBwOalLKo/PcfgCeklN+e6pyqDU7Lc+DAAaZOncrWrVtpHxPBbX+/nZhex5+WO5ZZGbW2DGm2k9757Ca7gTYWgSSEImyufKzFRzEVHkU09iNvAEkkGfHh/NqxmIYWpGkSLELHIgRmBBYE4VIQZUgiPB4i3WWEuhwtqleWAfxmHsbKsjOjy/epDLZlMtqzkj0h4Wx1mThrvYOizinkmjo1aTpCRSHRe1dUK1A0dMHRziFsjnXV2m5MSEm/vGB67nc2W2BTVWmEje+SXHgacJsb7zHRtyiX5XsKOP/+f1GQl0NSUhJfffUVcXFxAU/rmeB0u4lPBV7G1038bSnlU0KIuQBSyjeEEG8BFwMV46R7pJSpQoh4fKU24KsO+6+U8qnazqcCnJYlLS2NqVOnkpmZSe8eHbnl9TuxxIZVro9ymhmb5sHk8pITN5oiwk5xtNZJCIldOLC5CrAXZWA+dqRVVGUVxdhZluCm1BT4WbfB1w02CStDCnMJaiEDCUok+619+LI0qbIr8pnm7KD9DHKtZVtYNCvxct4GHWlpR0b4wGZJTzv3IUIOb/K7Tgoo6BDCtk4GeVYXutTQJOhSoEtBhxITPQ+4sJS0rOkOcjsFszi+tN4DAGoSJns04ovz2ZVdysQH3uPQ/n0EBQVx9913M2/ePMLDW/8UK02hoKCAf/zjH9x///1qoD+l/r777jsuueQSiouLGTG4N7NemoMp7Pgsu2EunQmbfPO2lLWLJzM4sQ1NaVkzk/ASYhRgLz6MJS8drQV+jiq4g8z8lmQi0169oWagmBGkSDMDC3OxGI0TTNVXoSmKhZ7hHPWcQd3CpWRK8A76uDaTFt6ONMPLhG0mrKWQ0XlsMwZ8ks4FG7Dkt60qxL29Q1nbof5dx6sGOTklLi7882JWLPM1TY2OjubBBx/k1ltvVePl1ODw4cP89a9/5Y033qCoqAhABThK3Xm9Xl555RXmzZuH1+tl+rnDOPeJK9Esx9ulB3k0ztmsYS1y4bXYONx5XKtoWBxompAEU0yQ4yjWvIPozvqPeNrYDA129QllY3RxvZ8468OORqrXRFJhyxg12S3MrNCHkeaIbe6kNLoYUxnnWDYT6zzAb1Ed2Ol2M36rjrXAydH4sZTI4GZNn0l46ZSxvEV+PhpKCkgbEMzusPrPXC6Ac12C+JJjSCQLd7i5//XP2bFpPQBdu3Zl/vz5XHDBBXTsqBrPA2zdupUXXniB//znP5UjkqcMH03abytUgKPUzaZNm7jxxhtZtWoVALNnT2HI7VNOmKPH4hVM3mLGXuDAa7aR1WU0Tql6AkjArrkI8uRhLzqC6VhmiyrdcQWZyexsZ1u0gyJz41UptRcWJhUXEe5q/gEFJZI9lkR+cCTiaDFThgROkOZign0X8c6daNLL8qgOHHJ5GbcZzCVujnUfzjER1dzJBCBIK6P93p9aVXu22hgmjWWDLA0aH6dqkAPglbBgXRGPv/4x6ft2VW43aNAgpk2bxtSpUxk2bBh6W58vrYojR47wySef8NFHH7GsvJRLaBoDx5zL+EtvYOr40UzqF6sCHOXUHA4HTz31FM8++ywej4eO7SK5bf4VRI5POmE7zYBzt1sJyS3DMFnJ6jYah2FtplS3bAJJkFaG3XUMS3EW5oIjLSLgkQIK2wezP1ZwINiBU/P6L9mRErtXJ9xtJtitVe7rFRJDgEeTZFmdGH4K7swIxng0+hTmtoju5y7NxiZTEr+UdWsTbXNMwssY+wH6ebZgNlwUmq0sDw2npMxg9GYvutMgr/tZFMmW1SYu0sgmog1NeAvgCrawKFlSbK7/VBECmOwW9Cw+dvx4huDVFUf597dr2Lp+FW7n8QeF0NBQunfvTqdOnejcuTOdO3cmNjYWs9mMlLLyBWA2m7Hb7djtdmw2G3a7nZiYGHr37o3V2nLv2YcPH2bhwoV89NFHLF269Hh+LFaGTr6IsRdfR7vO3UFKRnW1MjyphwpwFP+klCxevJjbbruNHTt2AHDVxWdz9t0X4Q42n7BtiFtnzC6TCm4aSBcGYd4cQnN2opcW1r5DE5ECvBYTXouGx6Rj6GBxGphLXWjeU98jPFaTr1SonZMCS/VSoV7CythjOVhbSNucMj2Y9Vp/VpV1QraoPmB1ICVx1kKSzBl09+zH5i3FLTTWh0ezXrhpX2ZhxEYXmlfnaPdRlBr22o/ZxCTQsWQ79qN7mzspAeW2mfitv7lBbd2EhFQsDDl29IR3pESS6w1h4aYcFv68nZ9/XUlOxqEaj1NXmqbRq1cvkpKSSEpKol+/fgwePJiEhIQmLx2SUrJv3z6WLVvGsmXLWLp0KXv3Hn9v6GYzialjSDl7Cv1GTMAWHEJncxEDLYfp7tmHrUNvROJUFeAoJ5JS8s033/DUU0/xyy++3v0JcR259bFrsQzsUu2JvkexnZStTkxOD4bJSna3US12nqnWIFiUEFp0EFvO/jZRZF9RKrQ7VrI3tOyE90+o0JlY5qZT+QSMLUGJHs5mrTebnR0obMFBusAgzlJIkimDrt5D2L2+6Q6klOwNjeJns8DjMRiaEUSHg0UYliCyOp3VoquMBZL2pbsJyt5V+8atiKELtiUGszWqYe2MOggL55yiatcjdPYUWdmfW8aBnCIOZRdxOKeArNwCDK+B0HwlQhqAAI/Hi8PlwuFw4XS6cLhc5OXkkJ2ZjvTzwBESEkJKSgpDhgxhyJAh9O7dm/j4eGJiYk67FFZKSV5eHtu2bWPr1q1s2bKFLVu2sHnzZrKyThyJ3BoUTM/kYQw8+zz6j5yAPTiULpZiEsxHiTcOEOrJRVR0Z+mUogIc5TjDMPj00095+umnWb/e16AtIiyEa66cSN/ZEzEsJ0bwwoDhmcF02VeEkGDoFrK7j1bBTYCYhYfokr3Ysna3iq7ndVEaaWdtTzhS9WlWSpI0OyOO5WAzGmfW54YwgHxzLPtEFzY5O3DM24zvaymJNZfQxVxIrHaMaCOPME8uJnm8ZMwjBPuDI9hkMXHE66J/XjC99pRicnnxBIVzpMMw3NJ8ipO0DBJo58kg5FBam3nfg6/UJTMulF86lzZoDCozglFenb4FjTdXXJFbIy3DwboDx9h0IIfNuw6xc8cO8o8e8bt9SEgI8fHxxMfH065dO0JCQggJCSE4OJiQkBBMJhMOhwOn04nD4cDhcFBUVERmZuYJL4fDf+AWFBpBfHIqPZOHEp+cSqeeibSzukkw59JNHKWdNxOr98SG3CUmMztDIiA6gcHdx6kA50yXnp7Of/7zH/7v//6PnTt3AtA+Opxrr5xI4u/G4QiqXjQZ5tIZvctEcJ7vzeUOa8fRmIE4a5kBWKk/u3AQnbsZc2F2cyclIKSArO6hrOpUhlM//rRoR2OUR5DQQtrmVGUAxeZo8kUE+YSRbYRyxB1CrsdWp95nAgOb5sWuebAKLzbNixUPFuHBIryYMDAJD2YMTHgIwkkQDmyyFJtRisVbhuanNE9KSXZQKDtsQezCjRODLiU2UvYY2AscSF2nqNMA8vTYE+Z/ag3CySfiwMoW0TYtkIpiglia4KKsgWNQxQsrZxfmE+RpmoENvWjsLzazdGc+K3dkkrbjABkZh8nNTMdREpiSV2tQMO06xxHbPYEO3XsS2z2B2O696N05kq6WYjpoBURzjHBPLlaj9HgpTbmK4H67xcwhw4kUMCAiiTE9xqsA50xUUlLCp59+yrvvvsuiRYsqG2t1iY3mmmsnE3/RWTgt1R8zzIZgYHYQ3faXoLsNJIKiLgPJNXXE//RkSqCEkU9E5oY2053WYzOxvZfNN39PlSChi7AwtoX0tKqNR+h4NQsGOobQ8Zb/1DAwGS50POiGC116qt2UG8qtCTLtYaSbrRzQDPKlG7tHo0++nS6ZbmwFZSAFZbEJ5Ab1wCNbbw+xYFFCzMFf0bwtazC/0+Wx6ByIDyItusRvQ/zamBAkSwuDCnObpdTTK3RK9TAOFutsyShhe8YxjhY4KCxzUVTqoKjUSWlpGYbXi9lqxWS2YLJYMVusmC02omOi6BATRad24XSODicmxESYKCOUUkIoIdhbjM0oRpc1561UN3EoKIwDZhMHpRsXBhavoPcxO90yvUR16kH4xIkqwDlTZGRk8PXXX/PVV1/xww8/UFLiG4jKYjZx7pgBjJ1xFmFnJeI2V78RCykZmBtCj31llbP0eoKjONphkGpM3ISEkES5MwnN3ITwtpzqnNNRHG1nY3c4HHy82koACcJKSmkxMY62EdA1hJSSQoudfIuNLLOZwxpkSRcSX6/FHsV2emRBeHYJWnmBgCusA3kx/dpMVbFVcxGTswlLYdubGd4VZGZXvJWtEbVPguuPBcFAw8zAopYzkGYFr9AxhAmQvraE0vdTSMNvaWRt3ELjqD2EwxYrBzQ4ariQwtdUolupjfijGlGZJZWdH2z9+hE2cYIKcNqqkpISVq1axaJFi/jqq69IS0s7Yf2QfvGcd/5Iek0dSmmIye8HTEhJ3/xgEvYdn+vF0DRKOvYj19yl1RV7txUm4SXKcZCgzO1toyEykoIOwaR1M04cN0RKumg2Upwuuhbnt7iqq0DwAiVmG8VmC0W6iSJd55gmyMPgmPTgKb++woCOThudCnRi8r0E55dV3sy9ZhtlMfEU2TtSZljb5KcyjGPlJZj1HyG4pSsLt7EtTmdPaP2neACwoTHQMJFYcozgJqq6akxSSoosNrKtQRwxmzkiJEfLA3sAm0fQoziITnmS8KNl6K7qD3sqwGljjhw5wsqVK1m+fDkrVqxg3bp1eDzHGyHabVbGpPZh6Ohk4scOwBkbUuNXY5TTTOJRCx0yj5fYGLqJ0o59yTd3ahPjhbQFVs1FVOEurEcPtIkGmVJAbucQ1nV2VetaHiXM9DIEcY4SostKWlWwI6Wk1Gwhz2LnmMlCvq6TLwyO4aXU8CJPyorVqxHjMBPp0AkvhZASg+BjDnT38ad0qes4IrtREtqFYhlyRjxstMUSzKrcQWaOdLSxI9pFfi0TjfojgO7CSl+ni+4lx1rFYAcuTeOYxU6uxUaOrpMjJLnSg4vj73WzIehcaiO2SCMqz0NQfhmihi8vry2E0uh4LPE96DqomwpwWhuv18u+ffvYsGED69atY/369axfv54jR05s6a5pGv16dWXIoHj6nT2Q6NRelFlqvglavIKEAjvdM7wE5R9vyGWYrBR3TOKYqcMZOeXCqUgpMZkdCFEM5R9IUVkAKwAzhmHFMCw0ePruOrBpTsJKDxN0dFebuPFLAYXtgjjQQbArrKxaO4VgoRMnzXR3uehUVtCiiucrqpVyrDaOmiwc1SRHpQdHlRs2UhLqMRPtNBHq1Al2QpBDYiszsJS6MDnc1drsGELgieiII6QDZeYIygzbGRHU+GMSHiJdmdhz9rSZNmlVSSSlUcEc6qCzN9xBSQMGCgwSOr0NE91dDjqUFWFqxu90L1BssVFgtlKgm8nXNY4JST5eSgzPiaVWUhLpstC+zERMsUZEvht7gaPGgAZ831Fl7eIptsdWjvHUrnsY8QPbqQCnpcrLy2PPnj3s2bOH7du3s23bNrZt28bOnTtxOqsPGhUabCc5sTsDU+KJT+1D9IAeOOx6tafDSlIS47TQvdBCu1wPwXlllfX4EoEzqgulYV0oEhEYNR7kzCOEB91UhDQKcDvyMLx1GMBLCnSLDd1kR+ghCBGMYQTh9ZgDWhKhCYMwbx6hubsxleQF7LjNyWvRyYkNYld7D5k2R/UifCkJ08xEoxNtSGLcbiLdTkI8DsxG493HDKDUZCHfYiPPbCFf08gTkryTnj6tXo2OZRaiS3XCSiGo2IO12HlCaUy1Y+sW3KHReOyRuCwhuPRgyqQNqT6HJ5GEaKUEl2Riy9mL1kJmrg8kicQRbicvykxGhJeDQY56N0w2IegoLHT1GnRxlhLpKA3onHAVJZRFJiuFJrOvqlUTFAlJAQZF0uO3tsDkhRiXlagyncgSCCv29f471WfDdz7whHfAEdaRUkuk32BfBTjNSErJ0aNHOXjwIIcOHap8HThwgD179rB3716OHTtW4/4d20fRp2dnEhI707VvHDF9u6J3isBzqje+lES5LMSWmIkpEkTmOCrb1ZSvxh3ViZKwrhRpkaq05gQSk7kQw5OFqzSPUz5O1IOmWzBZwtBMYXiNCKQ3MA22JRCkObC7jmEvaXlzXzWUx6JTFGUjN1wjM9RDltVZc8GYlFiERrAwEYwgWAosgEWCWRqVP3VASMN3SYVAk2AIcAuBW2i4NYELcApBqYBiJCV4KZXeajdtm0fQzmmlXYlORJFBaKEHc7HDbw8qw2TFHRKF1xqKxxKMR7fj1my4pBm31M/QspmGE0ISQjFWVyGW0lzMhdltrvcV+AYNLIm0URBmIifEIDPIVe+pIAQQJkyEoREuBWGGJMjrQUeiS4Fe3hBYSIlb03FpArfQcQmBW0CpEJQIKD3FZ6Eqq1cjymUmskwnrEwQWmoQVOTGXOqq061UIvCExeAMbofDFkUpwXhraSahApwAk1JSWFhIdnY22dnZHD16lOzsbLKysjhy5AgZGRknDG5UMetpTYLsVrp1bk/XztF06xFLh/hORMfHEtKjPV67ueaSGV9iCHObaOewEFmqEVXoJTjfialKYywpwRMajTO0Aw5bdPmbRgU1VWm6A03k4CrLwmjkm6WUYLaGYLK2wzAi8HqsASvdEUISRCl2Vx4WZyF66TH00sLTaqAsdR2vJQjDEoyskk4hhK/qzlWCVlrUqI2gvWaNsjArpUEmioMEBTaDPKubfIvrhDQFkjAgzGMizG0i1KkRUaYRUuwhqMiFqax61ZKU4A2JwhUSg9sahlMPxokVtzSpIKYRScCqebDKUsyGE93jQPM40F2l6M5ShKcM4Xa2+sBfIvEEWSgOs1AcopFvN8i1eci1Nt5nwB+rVyPSaSLCZSLEIQhxSOylXmwlbnQ/Va41kRKM4DBcwTG47JE4TGENKr08VYDTegdOOE2GYVBcXExBQcEJr2PHjpGfn3/CKy8vj9zc3MpXXl7eCY16axMWGkzHDlHExkbSoUMk0R2jiOgYTViXdoR0iUSLCAKt+kWtegZRXl8Z6TQR5tAILYOQYg+2Iie62w0cD6IMix1HdAwuexQus2/EgcqApnV/xgNHGJhMJSALcLtycZaVNlnjXSHA4yrG4/INua9bgjBZ2mHISLxu22kFO1IKSgimxBwMZiAEQGIWHiz4xmsRhoGQXjR8P5ESQzdjlHf3PD7WiwmP1PHK2m9ZAolZ82CRTsxeB2Z3EZaSXPTiHLQAtJvR3QYhuWWE5EL7qvlFYlhNeCwm3FYdt1nDZRZ4TQKvBm5d4i2fFLTivikkiPI/dAlWj8DkMbB4wOSRmF0GFofHF8RIF+Av4BUYugVXeAdcwTE4TGE4sJ/44CArtlQakwBchgkXYRXN4XyvKtNwSUATEg2JhoEuvOjSgy5dmAw3utfpC4qcxZjKCtEcJS2uMb9AYC51E1nqJhLoWr7c0MAVYsFp13FYdUpsUGqVFJq9lJkMXNrxV00T6mpSEOTVsXt17B4Nm1fD6hYEucHmlNicBhaHF3OZG83tRlDT91/140sJ0mrHHRyF2xaO2xKGUw/CKa0nNolohOZ1LTrAkVLidrspKyujtLS08mfF7yUlJSe8SktLKSkpobi4+IRXUVFR5auwsJCioiKKi4s5ndKroCAb0ZFhREWGEhkVSkRkCGFRoYTFhBPSLoKgdmHY24VhiQzGFFTLqL9SYvdohHhMhLp1gp0awS6wOyVWhxdrqQdzmRshnYCzYhcMWzCekI447OG4zcG4tCCc2E4s9m51AY2BZnKiiTKQpUjpBipmx5UgDRAaQrMihO9OJjEjpRmkhqzyQoLQDDTNjaZVBIEuDE8hLkc+Hnn8E9WcNzOvqxSv6wBwAN1kx2RvhyQCjzsoQIPGCdzSjBtzxZ81f+vKk36eYtMTdxO4DDMuzKCFgDUGrD0gSmLT3FiMUizuIsyuIkwlx9BLCwJS4iMQ6E4vutOLtRGnuTJMVtyh7XAFReE0h+HUgnAaplb8OTuzCHzBvxeBFw23NAFWINg3cZPG8aAowhewm4QHs3BjNlzoXgcmTxm6qxiTowTNUdhi2gFpBtgKndgKIfwU20kBUhdITfjGqjF8L9+4NQJfhFGXHl3+7wiGbsEbHIHHFobbEozHFIRLs+OSluo1Bk3UV6BFVlGZzWZptVopKyvDaMReE3a7lZCQIEJD7ASH2AkJsRMSaickLIigsGDsYUHYyl/W8GBskUGYQ+3YIoIwW2qe60VIid2rY/Pq2LwaNo/A7tGxecDiBotbYnEZvtmaXV50h7uy0W8FQzdhWEPwWoPxmoPwWILw6nbcmhWPMOOW5jbQINhANzkQogRpFON1F+NxlRCIbwspKS8JaXnv77oSQsdsi0AzhQEheDx2aMJu+1JKNM2LZnIhcIJ0IPH4gky8SGmA9IIwIXQLGlaksIA0YxgWvB5TjaVRVUt8dOnC5HWie5zo7lI0VxmauxTN7UK4nU0SfBpCYFhDMKzBeK3BuC0huE1BuDU7LmnG08C2MlJKhCbx3dE1pCFaVbd3xT8J6MIXBJlwYzJcvhGtvU409/EqMs1dhnCVtf7qsfJSGI81GMMWgscUhMcchEe34RGW0/qMnK5WV0Xl8Xgqq4B0Xcdms2C1WbDZLNhsVqxWc/nfZmx2K1a7FavdgsVuxWKzYAm2YgmyYg6yYrZbMdnNmIJ9f1uDbdiCbViDrGi6L6oUBpilwGxomKXAYmiYDIHFEJi9AlP5T7Phaw1uyhaYPBKT18DkBd1loHsNdLcX3W0gPEb506nHN7ajyYK0mDBMNgzdgmGylEe7VlxhZryaGUOY8QpTZbVAjcFLeUFGqyO86LoTIcqQshTDXYjbWYT/NvcBOJ2A1vmPOk5KL66yXCC3fIHAZA1CMwUhNDtCWAEbhteCITWkodfry1Mi0TQDITwIrTyIwYnhdfhe7lK8RsOfUoXQ0S3B6OXpBTtSmn3pNfTjJT4AevnLT9trTRjowkCj/CUNBAYaXl91G0b5U6hROZKq707rK6qSvsT4KieEjhQaBjpS6HjR8EgTHqn5vzmXP3j4XSe86LoLIVyAEymdSG8ZhteJNLwY0oP0eqj6PpQSNE1HaDpCaAjN5HsJHaGZQOgIfD99/xAToCPRkIYZaegYUg/YdBBKwwjAkAKXrHgPB51YElRFRfWYjkQTXnS8vvdvxftYen1VxtIAaZT/9CIMr69RPAbC8K0T0guGgSjftvL9bxgI6SvhFhi+Eu+KKlJNlPc80kATGEIDzYTUTEjd99PQTL5qas338mpmDHQ8mPGi45Eafj8FVb6PWuI7sk4BjhDiPOCv+D5xb0kpnz1pvShfPxUoBWZLKdfVZV9/4np14bnXHiDIYsWs6WgSdCnQpK/ng24INCnRDMr/9hXTCSnRDYFuSDQJmheEYaAZEs0LWolEK5IIr4Hw+orlhCF8SdNNSE3zXXTNBLqOoelIYQKt4ne9fH35TdKs47bouIL08htmxS1Yxys1JKJO7ReA1hu4VJJoesUXpRvfDd+F9JbhcZfgdTvwtMRPQGsipK+Ey1XDCK9SoJl8X5iaVuUuK0Tle0tKL9LwYBgeDK+nUUtHpPTicRbicRZWWyeEjm62IXSbL63CVF7laAJMSHR8JR6+L3qP9H3BV7uNipN+1ilhJ/30t7sw0DQvQrhBlLc5kE6k4Qv+vJ4yvB5Xvd/TQpRfg9MZw0gKNJMZTTcjNAtCM1f+D33frhq+oEgg0H3Vtb4dfS9RMXqTrySu8iU9SOlByvLfDd/vhuEtjxcFQpR/0QkNTTMjNLPvulVWF5tAmjAME9IwlaelKUmE5kHTvMevG67y/LmR0o1huJGGr+3ZySqCTt/7UfcFnOJ4oAkmpPS9J6U0YRh6reNeVVSPeRDl2/op/T9VtXFzaNXfRcfVGuAI39V9DZgEpAOrhRALpZRbq2w2BUgofw0H/g4Mr+O+1YTIYAaXDUaW+aJOX2GGhhS+N5IUwtfSWojy2S+ErxW58NUvuqmy3Pf45nsCAgx8N3sjkM9Afm6YFVrSe7aClBLha2np+y9pEln+9CuEUX4DNKrcAMt/St+N0Pcl6UYarvIvSletX5aqVL4JCInhdYPXjZey2jdvxmsipbe8OrLuw/FXVDsK3YRWXuIhhFb+JaT52mYJX2BUtQTH95tAVkZ5BhVf9r5qNg/S8JZ/mfu+2OsS/DXb/0/I8s+ci/r8/5qalKDpJjTdF4AJoYNmQoiKkiqt/J9YUTpQ8fPkG2lFFZ+vpE7iK71AejEMN0gPhuH23Ys87qa/LkJD0y1oFQ8WmtmXR810vDROakj0yoDT10awvL0gAqTvO01VX9aN7zsMENIXkNegLiU4w4DdUsq9AEKID4CZQNUgZSbwrvQ16FkphIgQQnQE4uqwb/XEm0y4Y6JPyMyJkcLxoX7K81gtkpBVhwOSBghv+bEqtq26XlberY6vPn7Oyn9mxRnL11We44Tzy8rzI6veWMuPUbGtrLzdIoQsP6Ss3Nu3XdUbsm/nirRUNrqtWAa+m3XF2SvXVxRXlv9uVNwsAvFBMpW/2sZkf0prJjleGtEQFVVCtXQIUE7T6VyjmlTch1oKD9TYy+jUhBC+gEhUBDu+wK/idyFE+VdI+brKQL6K8nGeKo9XsfikuPGkQYVPGVyd+B144rFEle9Jqn1XlydIViSsYknFd1bFMqPKcY2Kb7vyXY3yrzrfQ/nJ32EWc1dqUpd3RWfgUJW/0/GV0tS2Tec67guAEGIOMKf8z+Kk0X121CFtVcUAOfXcp7U70/Ks8tu2nWn5hTMvzyq/bV9z5Lm7v4V1CXD8hXUnlyHWtE1d9vUtlPJN4M06pMcvIcQaf62o27IzLc8qv23bmZZfOPPyrPLb9rWkPNclwEnn+JhCAF2AjDpuY6nDvoqiKIqiKAFVlybuq4EEIUQPIYQFuBxYeNI2C4FrhM8IoEBKmVnHfRVFURRFUQKq1hIcKaVHCHE78B2+VnhvSym3CCHmlq9/A/gaXxfx3fi6iV93qn0bJSenUb3Vip1peVb5bdvOtPzCmZdnld+2r8XkuUWOZKwoiqIoinI61JTSiqIoiqK0OSrAURRFURSlzWmRAY4QoqsQYokQYpsQYosQ4q7y5R8KIdLKX/uFEGnlyycJIdYKITaV/5xQw3EfF0IcrnKMqU2YrRo1IL/DqizfIIS4sIbjRgkhfhBC7Cr/GdmE2apRI+a3RV5fqH+eq+zXTQhRLIS4t4bjtolrXGW/2vLbIq9xA97TcUKIsirr3qjhuG3i+tYjvy3y+kLD3tNCiAFCiF/Lt98khKg2Kmpbucbl6+qS36a7xlLKFvcCOgKDy38PBXYCSSdt8xfg0fLfBwGdyn/vDxyu4biPA/c2d/4CkN8gwFRl3+yKv0/a53nggfLfHwCea+68NnJ+W+T1bUieqyz7BPhfTflqK9e4Hvltkde4Ae/pOGBzHY7bJq5vPfLbIq9vA/NsAjYCA8v/jgb0NnyN65rfJrvGLbIER0qZKcsn65RSFgHb8I2KDIAQQgCXAe+Xb7NeSlkxvs4WwCZ8Uy23Cg3Ib6mUsmIscBs1T402E3in/Pd3gAsCnvgGaMT8tlj1zXP5sguAvfje0zVpE9e4fNkF1J7fFqkh+a2jNnN9W7sG5HkysFFKuaF8n1zpf+KktnKN65rfJtMiA5yqhBBx+EpofquyeAyQJaXc5WeXi4H1UkpnDYe8XQixUQjxdkspCqyqrvkVQgwXQmwBNgFzqwQAVXWQvvGIKP/ZvtES3kABzi+08OsLdcuzECIYuB/4Yy2HaxPXuB75hRZ+jetxz+ohhFgvhFgqhBhTw+HaxPUtV5f8Qgu/vlDnPPcGpBDiOyHEOiHEfTUcrq1c47rmF5roGrfoAEcIEYKvyPr3UsrCKqtm4efJQAjRD3gOuLmGQ/4d6AmkAJn4itdajPrkV0r5m5SyHzAUmO+vrrOla4T8tujrC/XK8x+Bl6SUxU2ZvkBrhPy26Gtcj/xmAt2klIOAPwD/FUKENV1KA6MR8tuiry/UK88mYDRwZfnPC4UQE5ssoQHSCPltumvcFPVgDXkBZnwDBP7hpOUmIAvoctLyLvjqCEfV8fhx1KFOuKXm96RtlgCpfpbvADqW/94R2NHc+WzM/Lbk61vfPAPLgf3lr2NAHnB7W73Gdc1vS77Gp/me/ukM+wz7zW9Lvr71zTO+kfsXVPn7EWBeW73Gdc1vU17jFlmCU1639y9gm5TyxZNWnwNsl1KmV9k+AvgKmC+l/PkUx+1Y5c8Lgc0BS/RpaEB+ewghTOW/dwf64PtiONlC4Nry368FPg9w0huksfLbUq8v1D/PUsoxUso4KWUc8DLwtJTyb34O3SaucV3z21KvcQPe0+2EEHr57/FAAr72RydrE9e3rvltqdcX6p9nfIHBACFEUPn9ayyw1c+h28Q1po75bdJr3NwRYg1R3Wh8DUk3Amnlr6nl6xbga4NRdfuHgZIq26YB7cvXvUX5kwLwb3xtODbie1N1bO68NjC/V+NriJkGrAMuqLKuan6jgUXArvKfUc2d10bOb4u8vg3J80n7Pk6VXgdt8RrXI78t8ho34D19cfl7ekP5e/r8tnx965HfFnl9G/qeBq4qz/dm4Pm2fI3rkd8mu8ZqqgZFURRFUdqcFllFpSiKoiiKcjpUgKMoiqIoSpujAhxFURRFUdocFeAoiqIoitLmqABHURRFUZQ2RwU4iqIoiqK0OSrAURRFURSlzfn/22QUZSQwct8AAAAASUVORK5CYII=\n"},"metadata":{"needs_background":"light"}}]},{"cell_type":"markdown","source":"# Code for running vinylfluoride in Notebook\n\nSee for how to extract properties. **NOTE quite slow on Binder: uncomment and execute at your own risk!**","metadata":{}},{"cell_type":"code","source":"'''\nimport veloxchem as vlx\nfrom mpi4py import MPI\nfrom veloxchem.rsplinabscross import LinearAbsorptionCrossSection\nfrom veloxchem import OutputStream\ncomm = MPI.COMM_WORLD\nostream = OutputStream()\nmol_str = \"\"\"\n C     0.000000    -0.246412    -1.271068\n C     0.000000     0.457081    -0.154735\n F     0.000000    -0.119195     1.052878\n H     0.000000     0.272328    -2.210194\n H     0.000000    -1.319906    -1.249847\n H     0.000000     1.530323    -0.095954\n\"\"\"\nmolecule = vlx.Molecule.read_str(mol_str)\nbasis    = vlx.MolecularBasis.read(molecule, \"def2-svp\")\nscf_settings    = {'conv_thresh': 1.0e-8}\nmethod_settings = {'xcfun': 'b3lyp', 'grid_level': 4}\nscf_drv = vlx.ScfRestrictedDriver(comm,ostream)\nscf_drv.update_settings(scf_settings, method_settings)\nscf_drv.compute(molecule, basis)\nfreqs = np.arange(10.05,10.37,0.0025)\nfreqs_str = [str(x) for x in freqs]\ncpp_prop = LinearAbsorptionCrossSection({'frequencies': ','.join(freqs_str), 'damping': 0.01},method_settings)\ncpp_prop.init_driver(comm, ostream)\ncpp_prop.compute(molecule, basis, scf_drv.scf_tensors)\naxx,ayy,azz = [],[],[]\nfor w in freqs:\n    axx.append(-cpp_prop.rsp_property['response_functions'][('x', 'x', w)].imag)\n    ayy.append(-cpp_prop.rsp_property['response_functions'][('y', 'y', w)].imag)\n    azz.append(-cpp_prop.rsp_property['response_functions'][('z', 'z', w)].imag)\naxx,ayy,azz = np.array(axx),np.array(ayy),np.array(azz)\nsolution_vecs = cpp_prop.get_property('solutions')\nx_solution,y_solution,z_solution = [],[],[]\nfor w in freqs:\n    x_solution.append(solution_vecs[('x',w)]); y_solution.append(solution_vecs[('y',w)]); z_solution.append(solution_vecs[('z',w)])\nx_solution,x_solution,x_solution = np.array(x_solution),np.array(y_solution),np.array(z_solution)\nnocc  = molecule.number_of_alpha_electrons()\nnvirt = scf_drv.mol_orbs.number_mos() - nocc\nmo_E  = scf_drv.scf_tensors['E']\nscf_E = scf_drv.get_scf_energy()\n'''","metadata":{"trusted":true},"execution_count":null,"outputs":[]}]}